********************************************************************************
Field Output Report, written Fri Aug 16 11:01:04 2019

Source 1
---------

   ODB: C:/Users/maduguls/Documents/Sashi_Kiran/BL2D/Code_Anisoptopic_original/auto_inp.odb
   Step: Step-1
   Frame: Increment      1: Step Time =   2.2200E-16

Loc 1 : Integration point values from source 1

Output sorted by column "Element Label".

Field Output reported at integration points for part: PART-1-1

   Element Label             Int         S.Mises           S.S11           S.S12           S.S22
                              Pt          @Loc 1          @Loc 1          @Loc 1          @Loc 1
-------------------------------------------------------------------------------------------------
               1               1         28.8186         25.5728         6.06447        -2.36954
               2               1     431.409E-03     215.705E-03    -215.705E-03     215.705E-03
               3               1     383.974E-03     191.987E-03     191.987E-03     191.987E-03
               4               1         32.9796        -33.8338    -33.4051E-03        -1.78067
               5               1     428.052E-03     214.026E-03     214.026E-03     214.026E-03
               6               1         15.1233    -537.425E-03        -8.72197     258.867E-03
               7               1         16.3017        -1.16119         3.98521        -15.3146
               8               1         29.9063        -25.3774        -11.0919        -6.18590
               9               1     863.193E-03    -386.303E-03     453.793E-03    -317.226E-03
              10               1         1.85174        -1.21570    -15.8423E-03        -2.13092
              11               1         28.8035         25.5525        -6.05628        -2.38651
              12               1         5.75615    -611.191E-03        -2.53138        -3.99739
              13               1         14.5754        -1.11151        -8.38103        -1.44470
              14               1     380.881E-03     190.441E-03    -190.441E-03     190.441E-03
              15               1         21.6623         8.27250         10.7771        -4.19980
              16               1         32.8008        -33.6526     58.5435E-03        -1.77614
              17               1         12.8407        -8.47205         6.08094        -4.58192
              18               1         32.9829         33.9415    -51.4653E-03         2.00941
              19               1     918.096E-03    -429.412E-03    -484.099E-03    -254.049E-03
              20               1         29.8670        -25.3571         11.0688        -6.17898
              21               1         1.89225        -1.26735     45.9100E-03        -2.17304
              22               1         14.8422    -101.334E-03        -4.35939        -12.8284
              23               1         15.1591    -506.795E-03         8.74403     228.662E-03
              24               1         32.7994         33.7537     28.1694E-03         2.00009
              25               1         35.1086         33.9346         2.17247        -1.86851
              26               1         12.8905        -8.65242        -6.05395        -4.58307
              27               1     815.035E-03    -373.142E-03    -430.717E-03    -244.049E-03
              28               1         5.02247    -449.728E-03         2.18594        -3.50184
              29               1         1.44436    -8.23442E-03     42.5873E-03         1.43834
              30               1         21.6553         8.11585        -10.8258        -4.18560
              31               1         14.7993    -96.6823E-03         4.31529        -12.8212
              32               1         1.82452        -1.28321    -50.8386E-03        -2.08596
              33               1         8.19916         4.14762         4.06700    -94.7554E-03
              34               1         14.6495        -1.05251         8.42855        -1.33621
              35               1         31.4833        -33.8978        -2.73962        -6.61050
              36               1         31.4795        -33.8989         2.71913        -6.60877
              37               1         4.98924    -326.648E-03        -2.15247        -3.46683
              38               1         35.0992         33.9320        -2.14944        -1.86368
              39               1         1.45983     49.4126E-03    -76.8144E-03         1.47783
              40               1         8.87976         3.79790         4.28768        -1.68987
              41               1         5.64655    -502.594E-03         2.45389        -3.94309
              42               1         16.2358        -1.24606        -3.92029        -15.3312
              43               1         1.67327     35.5666E-03     52.9327E-03         1.68825
              44               1         8.81543         3.79155        -4.24264        -1.70006
              45               1     921.743E-03    -414.817E-03     487.567E-03    -293.379E-03
              46               1         8.08817         4.07813        -4.01151    -121.640E-03


  Minimum                            380.881E-03        -33.8989        -11.0919        -15.3312
      At Element                              14              36               8              42
          Int Pt                               1               1               1               1

  Maximum                                35.1086         33.9415         11.0688         2.00941
      At Element                              25              18              20              18
          Int Pt                               1               1               1               1

           Total                         643.549         3.56387     139.080E-03        -130.356


