********************************************************************************
Field Output Report, written Tue Jun 25 13:49:11 2019

Source 1
---------

   ODB: C:/Users/maduguls/Documents/Sashi_Kiran/BL2D/Code_Anisoptopic/auto_inp.odb
   Step: Step-1
   Frame: Increment      1: Step Time =   2.2200E-16

Loc 1 : Element nodal  values at beam < rectangular > < elset = ASSEMBLY_PART-1-1_SET-1 > from source 1 : Bottom, (fraction = -1.0) ( Average criteria = 75%, Not averaged across region boundaries )
Loc 2 : Element nodal  values at beam < rectangular > < elset = ASSEMBLY_PART-1-1_SET-1 > from source 1 : Top, (fraction = 1.0) ( Average criteria = 75%, Not averaged across region boundaries )

Output sorted by column "Element Label".

Field Output reported at element nodes for part: PART-1-1
   Computation algorithm: EXTRAPOLATE_COMPUTE_AVERAGE
   Averaged at nodes
   Averaging regions: ODB_REGIONS

   Element Label      Node Label         S.Mises         S.Mises           S.S11           S.S11
                                          @Loc 1          @Loc 2          @Loc 1          @Loc 2
-------------------------------------------------------------------------------------------------
               1              82         2.72685         6.40208        -1.95509        -5.63032
               1             150         4.06182         5.38087        -3.34976        -4.66881
               2             215         3.56759         2.58464         3.20388         1.73233
               2             273         2.36185         3.32644         1.70459         2.60344
               3             198         3.87506         3.95097        -3.47091        -3.43691
               3             203         3.37561         4.75760        -2.61823        -4.15313
               4               1     173.860E-03     131.734E-03    -128.401E-03     131.734E-03
               4             116     614.464E-03     420.065E-03    -437.030E-03    -147.013E-03
               5              13         1.97816         1.82737         1.97816     318.610E-03
               5              14         2.59940         1.77999         2.59940     473.738E-03
               6             246         3.44868         3.49654        -2.71230        -3.14244
               6             309         3.35099         3.56646        -2.57707        -3.03974
               7             222         1.47704         1.66591    -802.283E-03        -1.50719
               7             223         1.42703         1.31322    -880.463E-03        -1.05782
               8              40         1.95513         3.99774         5.57767         3.22526
               8             142         4.77210         1.15873         4.15436         3.47379
               9             136         4.51683         3.49669         3.88906         2.77870
               9             234         3.92359         3.61566         3.26569         2.53891
              10              31         5.82917         3.07776         5.57683         2.11297
              10              32         13.8161         3.52988         5.18661         2.85198
              11             118         2.01846         2.17096         2.01846     601.055E-03
              11             331         2.17698         1.99405         1.66664     566.929E-03
              12              71         1.01950         1.18075    -756.817E-03    -918.075E-03
              12             167         1.26694         1.03655    -766.808E-03    -782.558E-03
              13             176         4.38978         4.10803         3.61659         3.53956
              13             226         4.01252         3.57903         3.23464         3.00584
              14             114     456.161E-03     338.491E-03    -259.274E-03    -48.4762E-03
              14             116     614.464E-03     420.065E-03    -437.030E-03    -147.013E-03
              15              66         2.28753         2.93649        -1.84025     824.277E-03
              15             163     379.244E-03         3.26442        -4.29519        -2.23703
              16             249         3.31938         4.71322        -2.19129        -3.63509
              16             288         3.91413         5.87290        -2.64472        -5.15064
              17             161         4.61668         4.92477        -3.63587        -2.68666
              17             245         3.29600         3.07526        -2.64435    -981.872E-03
              18              12         1.67404         1.99540     992.860E-03     184.898E-03
              18              13         1.97816         1.82737         1.97816     318.610E-03
              19             150         4.06182         5.38087        -3.34976        -4.66881
              19             243         3.67224         5.34044        -3.10472        -5.01426
              20             107         1.98818         2.62521        -1.17402        -2.62521
              20             120         1.87246         2.42537        -1.07775        -2.24644
              21              28         5.61399         3.36208         5.07217         2.56900
              21              29         5.77985         3.31576         5.15782         2.63273
              22              50         5.81119         2.84552         5.49489         2.05655
              22              51         5.31089         3.04601         4.67021         2.51275
              23              16         3.14881         1.82193         3.14881     762.300E-03
              23              17         3.47818         2.02928         3.47818     956.545E-03
              24              17         3.47818         2.02928         3.47818     956.545E-03
              24             134         2.94069         1.80316         2.94069     471.535E-03
              25              29         5.77985         3.31576         5.15782         2.63273
              25              30         5.95287         3.03612         5.66787         2.06232
              26              18         3.49582         2.55265         3.49582         1.47715
              26             218         3.06631         2.65817         3.06631         1.34225
              27              17         3.47818         2.02928         3.47818     956.545E-03
              27              18         3.49582         2.55265         3.49582         1.47715
              28             107         1.98818         2.62521        -1.17402        -2.62521
              28             217         2.05869         2.82363    -961.397E-03        -2.82363
              29              19         4.10562         2.32623         4.10562         1.30025
              29              20         4.00819         2.75127         3.94261         1.77409
              30             120         1.87246         2.42537        -1.07775        -2.24644
              30             125         1.60512         2.13753    -871.127E-03        -1.96355
              31              92         2.89720         5.43964        -2.19287        -5.22952
              31             143         2.65293         5.05822        -1.87484        -4.86396
              32              39         14.7665         3.24385         5.68249         2.25965
              32              40         14.7665         3.99774         5.57767         3.22526
              33             316         3.68505         5.57508        -3.31157        -5.46754
              33             317         4.54178         5.34840        -3.17375        -4.99825
              34             262         3.36720         2.56244        -1.32308        -1.89031
              34             357         2.15855         2.51710        -2.14874    -904.197E-03
              35             147         3.78983         4.11137        -3.49867        -3.57948
              35             185         3.59593         3.96302        -3.27213        -3.50213
              36             287         1.46947         1.39510    -883.890E-03    -748.772E-03
              36             359         1.17805         1.32269    -555.771E-03    -818.848E-03
              37              45         14.5895         3.50673         5.35078         2.96452
              37              46         14.5895         3.11931         5.82376         2.29290
              38              46         2.19175         3.11931         5.82376         2.29290
              38             190         5.09108         3.45548         4.81521         2.50862
              39             191         3.36584         3.68249        -2.64904        -3.21297
              39             251         3.71175         3.34818        -2.77023        -3.13379
              40              58         4.51669         1.97316         3.96500         1.42147
              40              59         4.18061         1.71633         3.12422         1.71633
              41              59         4.18061         1.71633         3.12422         1.71633
              41             154         2.16014         2.98015         1.65032         2.22554
              42              76         1.94876         3.10330        -1.50167        -2.65621
              42             174         2.17191         2.55707        -1.43996        -2.21440
              43              70     855.958E-03     717.941E-03    -363.297E-03    -717.561E-03
              43             160         1.01196     851.311E-03    -425.553E-03    -764.696E-03
              44              47         5.78996         3.11830         5.02728         2.69073
              44              48         5.77490         3.10237         4.96963         2.74816
              45              52         5.33311         2.59705         4.95612         1.80162
              45              53         5.13397         2.72461         4.33093         2.36446
              46              30         5.95287         3.03612         5.66787         2.06232
              46             207         5.03514         3.24410         4.73451         2.23669
              47             366         2.98356         2.97416         2.24977         1.94505
              47             383         3.30396         2.77779         2.43924         2.00045
              48             136         4.51683         3.49669         3.88906         2.77870
              48             248         2.64852         4.63129         1.98096         3.96373
              49             288         3.91413         5.87290        -2.64472        -5.15064
              49             348         4.38692         4.00718        -3.63617        -2.67911
              50             145         4.34634         4.04704         3.71657         3.62322
              50             283         4.19749         3.99177         3.26857         3.15670
              51             214         3.21756         3.10948        -2.20736        -2.65561
              51             324         3.42856         2.73173        -2.47798        -1.93801
              52             253         1.54322         1.77182    -956.852E-03        -1.18545
              52             328         1.77416         1.36476    -652.759E-03        -1.18419
              53             173         1.90091         2.15796        -1.22718        -1.85233
              53             174         2.17191         2.55707        -1.43996        -2.21440
              54              54         5.16304         2.71408         4.34119         2.40041
              54             178         4.04469         2.93994         3.74202         1.92992
              55              65         1.71494         1.78155     576.225E-03     642.839E-03
              55             168         1.92267         1.55051     47.7722E-03     683.195E-03
              56              72         1.33337         1.49055    -746.589E-03        -1.49055
              56             121         1.36883         1.41426    -757.643E-03        -1.28292
              57              14         2.59940         1.77999         2.59940     473.738E-03
              57              15         2.72597         2.00722         2.72597     833.717E-03
              58             177         4.72931         4.78697        -3.12371        -4.30586
              58             180         2.48394         8.58768        -3.85662        -8.58405
              59              59         4.18061         1.71633         3.12422         1.71633
              59              60         3.81309         1.54085         2.79346         1.54085
              60              84         2.69784         5.60768        -2.19309        -5.23731
              60             122         3.26442         4.38306        -2.85753        -3.97616
              61               6         10.8435         9.23717        -10.8435        -7.35340
              61              66         2.28753         2.93649        -1.84025     824.277E-03
              62             159         1.81991         1.85097        -1.48779        -1.29647
              62             173         1.90091         2.15796        -1.22718        -1.85233
              63              86         2.94776         5.91498        -2.32808        -5.71405
              63             147         3.78983         4.11137        -3.49867        -3.57948
              64             213         5.37091         5.24810        -3.75221        -2.80649
              64             263         3.24822         2.79472        -1.87623        -1.56678
              65              83         2.93955         5.46595        -1.88864        -5.46595
              65             122         3.26442         4.38306        -2.85753        -3.97616
              66             220         5.66859         5.31184        -3.99174        -2.27663
              66             262         3.36720         2.56244        -1.32308        -1.89031
              67             120         1.87246         2.42537        -1.07775        -2.24644
              67             239         2.04057         2.13820        -1.10517        -1.76282
              68             194         3.56578         4.11218        -3.17693        -3.73175
              68             271         3.65427         3.29137        -3.31588        -2.37908
              69              71         1.01950         1.18075    -756.817E-03    -918.075E-03
              69             121         1.36883         1.41426    -757.643E-03        -1.28292
              70             349         3.10062         3.05985         2.49026         1.97682
              70             429         4.01508         2.52517         3.64216         1.02613
              71             125         1.60512         2.13753    -871.127E-03        -1.96355
              71             132         1.43049         2.00828    -996.715E-03        -1.57451
              72              39         2.64470         3.24385         5.68249         2.25965
              72             192         4.62832         3.24155         4.08399         2.39760
              73             304         3.23820         5.98687        -2.84830        -5.83830
              73             348         4.38692         4.00718        -3.63617        -2.67911
              74              44         14.5935         3.55643         5.20564         2.91909
              74              45         14.5935         3.50673         5.35078         2.96452
              75             144         4.45706         6.20748         3.94550         4.06648
              75             235         3.51916         4.37874         3.03159         3.48939
              76              52         5.33311         2.59705         4.95612         1.80162
              76             181         2.92893         4.15700         2.30535         3.39904
              77              85         2.79965         5.64743        -2.26806        -5.35303
              77             185         3.59593         3.96302        -3.27213        -3.50213
              78             133         3.57455         3.86618         3.06141         3.07296
              78             255         4.53950         2.13297         4.18722     967.031E-03
              79             147         3.78983         4.11137        -3.49867        -3.57948
              79             254         4.25447         3.11484        -3.87909        -2.75551
              80              43         1.94790         3.43642         4.93666         2.74207
              80             145         4.34634         4.04704         3.71657         3.62322
              81             102         1.61579         5.67350        -4.37074        -4.61356
              81             209         2.69626         6.74407        -1.55253        -6.38800
              82             100         3.36099         3.54685        -2.17306        -6.08278
              82             135         3.71634         4.85798        -3.09119        -4.67988
              83              92         2.89720         5.43964        -2.19287        -5.22952
              83             141         3.44478         3.94417        -2.82982        -3.68495
              84             216         2.21288         1.54474         1.63938     216.861E-03
              84             227         2.21125         1.75108     931.237E-03     471.071E-03
              85             135         3.71634         4.85798        -3.09119        -4.67988
              85             137         2.77646         6.04181        -1.60522        -6.04181
              86              16         3.14881         1.82193         3.14881     762.300E-03
              86             221         2.32981         1.94409         2.32981     586.794E-03
              87             146         4.86936         3.09033         4.21936         2.41610
              87             305         3.27484         4.10393         2.45830         3.07935
              88             182         2.33665         5.83501        -1.49519        -5.51900
              88             242         3.05121         4.62503        -2.48337        -4.05720
              89             282         4.12832         2.97463         3.80342         1.73486
              89             363         3.60575         2.53699         2.65692         1.86152
              90             160         1.01196     851.311E-03    -425.553E-03    -764.696E-03
              90             167         1.26694         1.03655    -766.808E-03    -782.558E-03
              91             101         3.34247         3.34190        -1.76716        -6.31666
              91             137         2.77646         6.04181        -1.60522        -6.04181
              92             269         4.34320         3.26616        -3.82920        -2.75215
              92             314         4.57351         2.87302        -4.18193        -2.21623
              93              78         2.45187         4.37744        -1.76805        -3.69361
              93             157         3.76822         3.77635        -3.42631        -2.35631
              94             338         1.99296         2.44856     580.128E-03         1.92975
              94             398         2.56808         1.63110     596.867E-03         1.55833
              95             235         3.51916         4.37874         3.03159         3.48939
              95             306         3.88380         3.88909         3.34458         2.77964
              96              20         4.00819         2.75127         3.94261         1.77409
              96              21         4.52613         2.45743         4.43481         1.47468
              97             105         2.44263         3.53452        -1.32998        -3.53452
              97             127         2.31680         3.11600        -2.08155        -2.08703
              98             141         3.44478         3.94417        -2.82982        -3.68495
              98             256         4.55217         2.14607        -4.00545        -1.57280
              99               9     861.282E-03     879.011E-03    -815.824E-03     390.894E-03
              99              10         2.38325         2.23423        -2.38325     611.060E-03
             100               6         10.8435         9.23717        -10.8435        -7.35340
             100             163         15.5523         12.8095        -4.29519        -2.23703
             101             225         2.02585         2.34017        -1.24542     240.092E-03
             101             240         3.37937         2.93381        -1.59969        -1.46613
             102              69     554.580E-03     387.568E-03    -114.004E-03    -275.479E-03
             102             164     574.151E-03     655.551E-03    -317.060E-03    -398.460E-03
             103              10         2.38325         2.23423        -2.38325     611.060E-03
             103             220         1.61469         5.31184        -3.99174        -2.27663
             104             134         2.94069         1.80316         2.94069     471.535E-03
             104             221         2.32981         1.94409         2.32981     586.794E-03
             105              64         2.28991         1.33691         1.59483     641.831E-03
             105             169         1.88515         1.72030         1.00786     843.010E-03
             106              63         3.07321         1.13396         1.83102         1.13396
             106              64         2.28991         1.33691         1.59483     641.831E-03
             107              12         1.67404         1.99540     992.860E-03     184.898E-03
             107             224         2.14971         2.59628    -242.731E-03    -866.870E-03
             108              34         2.22293         3.08026         5.76184         2.23380
             108             204         5.11838         3.29734         4.55790         2.66655
             109             403         2.39200         3.59381         1.46917         3.12040
             109             466         3.03718         3.02074         2.17205         2.26612
             110              14         2.59940         1.77999         2.59940     473.738E-03
             110             216         2.21288         1.54474         1.63938     216.861E-03
             111             198         3.87506         3.95097        -3.47091        -3.43691
             111             206         4.02748         4.66325        -3.23707        -4.28083
             112             274         5.03917         2.60922        -4.83582        -2.14776
             112             382         4.79029         1.54752        -4.53200        -1.19657
             113             227         2.21125         1.75108     931.237E-03     471.071E-03
             113             336         2.37032         1.79452     85.4643E-03     888.421E-03
             114             132         1.43049         2.00828    -996.715E-03        -1.57451
             114             232         1.73032         1.89672    -821.864E-03        -1.63039
             115              21         4.52613         2.45743         4.43481         1.47468
             115             215         3.56759         2.58464         3.20388         1.73233
             116             114     456.161E-03     338.491E-03    -259.274E-03    -48.4762E-03
             116             115     960.316E-03     937.200E-03    -747.875E-03    -459.563E-03
             117             261         1.54126         1.63813    -919.482E-03        -1.01635
             117             294         1.71026         1.72542        -1.23041        -1.09039
             118              37         5.42825         3.49023         4.99609         2.79339
             118             200         4.06653         4.08530         3.41498         3.41975
             119             104         3.11114         4.66637        -1.35815        -4.66637
             119             214         3.21756         3.10948        -2.20736        -2.65561
             120             127         2.31680         3.11600        -2.08155        -2.08703
             120             217         2.05869         2.82363    -961.397E-03        -2.82363
             121               5         10.7935         9.33930        -10.7935        -7.45143
             121             220         14.1202         5.31184        -3.99174        -2.27663
             122              65         1.71494         1.78155     576.225E-03     642.839E-03
             122              66         2.28753         2.93649        -1.84025     824.277E-03
             123               6         10.8435         9.23717        -10.8435        -7.35340
             123              67         2.73706         1.84051    -967.301E-03    -837.612E-03
             124             125         1.60512         2.13753    -871.127E-03        -1.96355
             124             239         2.04057         2.13820        -1.10517        -1.76282
             125              26         5.78575         3.05258         5.59364         2.06915
             125             211         4.87455         3.09960         4.54960         2.31339
             126             179         3.68538         3.37495         3.19529         2.65668
             126             302         3.58070         2.58841         3.45196         1.14787
             127              56         5.15437         2.31296         4.62182         1.67987
             127              57         4.91347         2.07777         3.81240         2.07777
             128             257         1.66413         4.47485     602.091E-03         4.08271
             128             273         2.36185         3.32644         1.70459         2.60344
             129             108         1.56837         2.48058        -1.21052        -2.12272
             129             120         1.87246         2.42537        -1.07775        -2.24644
             130             163         5.46100         1.35820        -4.29519        -2.23703
             130             245         3.29600         3.07526        -2.64435    -981.872E-03
             131               2     154.348E-03     130.754E-03     23.3589E-03    -30.0503E-03
             131              68     804.409E-03     872.609E-03    -280.493E-03    -174.652E-03
             132             109         1.42776         2.21255        -1.07980        -1.86458
             132             125         1.60512         2.13753    -871.127E-03        -1.96355
             133             110         1.30916         1.94511    -974.282E-03        -1.61023
             133             132         1.43049         2.00828    -996.715E-03        -1.57451
             134             305         3.27484         4.10393         2.45830         3.07935
             134             381         2.64468         3.28195         1.53392         2.62762
             135              43         14.0204         3.43642         4.93666         2.74207
             135              44         14.0204         3.55643         5.20564         2.91909
             136             195         4.70837         4.30612         3.75097         3.81736
             136             235         3.51916         4.37874         3.03159         3.48939
             137              45         2.46514         3.50673         5.35078         2.96452
             137             190         5.09108         3.45548         4.81521         2.50862
             138              46         13.9515         3.11931         5.82376         2.29290
             138              47         5.78996         3.11830         5.02728         2.69073
             139             152         5.64172         12.3912        -3.84808        -8.91234
             139             180         1.90691         8.58768        -3.85662        -8.58405
             140              91         2.96862         5.50082        -2.30238        -5.29513
             140             143         2.65293         5.05822        -1.87484        -4.86396
             141             271         3.65427         3.29137        -3.31588        -2.37908
             141             407         2.97466         3.12049        -2.16734        -2.43123
             142             184         4.27480         3.96985         3.96870         3.37787
             142             200         4.06653         4.08530         3.41498         3.41975
             143              93         2.95529         5.33141        -2.07600        -5.07618
             143             141         3.44478         3.94417        -2.82982        -3.68495
             144             149         3.28962         4.47831         2.46386         4.21215
             144             228         3.46088         3.46088         2.75974         2.75974
             145             106         1.94455         3.30323        -1.47403        -2.83271
             145             127         2.31680         3.11600        -2.08155        -2.08703
             146             447         1.95717         2.88427        -1.90999        -2.21072
             146             455         2.48790         2.58465        -2.18959        -2.16307
             147             104         3.11114         4.66637        -1.35815        -4.66637
             147             131         4.02447         5.17550        -2.40073        -5.17550
             148              20         4.00819         2.75127         3.94261         1.77409
             148             215         3.56759         2.58464         3.20388         1.73233
             149              21         4.52613         2.45743         4.43481         1.47468
             149              22         4.32910         2.84267         4.12336         1.97756
             150               5         10.7935         9.33930        -10.7935        -7.45143
             150              10         2.38325         2.23423        -2.38325     611.060E-03
             151             112         1.11477         1.08764    -532.438E-03        -1.08764
             151             219         1.28732         1.08082    -550.882E-03    -969.141E-03
             152              22         4.32910         2.84267         4.12336         1.97756
             152              23         4.57452         3.07541         4.35252         2.18115
             153              22         4.32910         2.84267         4.12336         1.97756
             153             130         2.36656         4.26235         2.25556         3.17051
             154              99         3.00860         6.12845        -2.55114        -5.77225
             154             202         4.01220         4.28572        -3.72002        -3.78605
             155             102         3.65145         5.67350        -4.37074        -4.61356
             155             205         3.65145         8.62078        -4.58052        -8.09081
             156              24         4.84938         3.26409         4.61908         2.37063
             156              25         5.26593         3.39079         4.93262         2.57539
             157             161     246.601E-03         4.92477        -3.63587        -2.68666
             157             163     246.601E-03         6.37302        -4.29519        -2.23703
             158             313         3.76394         3.63599         3.14223         3.01059
             158             387         1.57529         4.71420     450.579E-03         4.07667
             159              98         3.18843         6.26700        -2.68508        -6.05836
             159             202         4.01220         4.28572        -3.72002        -3.78605
             160              26         5.78575         3.05258         5.59364         2.06915
             160              27         5.73393         3.01359         5.50055         1.98499
             161              28         5.61399         3.36208         5.07217         2.56900
             161             139         3.91688         4.22494         3.36021         3.31232
             162              24         4.84938         3.26409         4.61908         2.37063
             162             133         3.57455         3.86618         3.06141         3.07296
             163             122         3.26442         4.38306        -2.85753        -3.97616
             163             276         2.58797         4.64743        -1.90899        -4.42572
             164             137         2.77646         6.04181        -1.60522        -6.04181
             164             209         2.69626         6.74407        -1.55253        -6.38800
             165              27         5.73393         3.01359         5.50055         1.98499
             165              28         5.61399         3.36208         5.07217         2.56900
             166              95         3.03758         6.31740        -2.25711        -5.89373
             166             140         3.10786         5.10634        -2.65861        -4.26156
             167              40         16.2669         3.99774         5.57767         3.22526
             167              41         16.2669         3.63037         5.96131         3.32408
             168             495         2.68474         2.33469         1.22385         1.05899
             168             555         2.64263         2.24920     215.103E-03    -179.580E-03
             169             235         3.51916         4.37874         3.03159         3.48939
             169             349         3.10062         3.05985         2.49026         1.97682
             170             203         3.37561         4.75760        -2.61823        -4.15313
             170             314         4.57351         2.87302        -4.18193        -2.21623
             171              38         5.88116         3.10395         5.62072         2.14539
             171             200         4.06653         4.08530         3.41498         3.41975
             172              31         5.82917         3.07776         5.57683         2.11297
             172             201         5.42820         2.54280         5.12072         1.54187
             173              33         14.2671         3.48561         5.34684         2.91638
             173              34         14.2671         3.08026         5.76184         2.23380
             174             184         4.27480         3.96985         3.96870         3.37787
             174             301         3.35107         3.94820         3.08175         3.30522
             175              36         5.66427         3.12757         4.98792         2.67568
             175             184         4.27480         3.96985         3.96870         3.37787
             176              41         15.5034         3.63037         5.96131         3.32408
             176              42         15.5034         2.84821         5.37294         2.79198
             177              41         3.23563         3.63037         5.96131         3.32408
             177             144         4.45706     459.433E-03         3.94550         4.06648
             178             220         4.41811         5.31184        -3.99174        -2.27663
             178             263         3.24822         2.79472        -1.87623        -1.56678
             179             153         3.49527         2.15035         2.57763         1.76091
             179             297         2.48640         2.85014         2.09696         1.52235
             180              35         5.69939         3.09401         5.00826         2.63153
             180              36         5.66427         3.12757         4.98792         2.67568
             181             329         1.98241         1.56368    -809.588E-03        -1.56368
             181             369         1.81624         1.96633        -1.04136        -1.19145
             182             133         3.57455         3.86618         3.06141         3.07296
             182             320         5.23709         1.85079         4.46868         1.02881
             183             122         3.26442         4.38306        -2.85753        -3.97616
             183             185         3.59593         3.96302        -3.27213        -3.50213
             184              34         13.6857         3.08026         5.76184         2.23380
             184              35         5.69939         3.09401         5.00826         2.63153
             185             540         2.56454         2.13708    -918.855E-03        -1.11097
             185             558         1.76980         1.86483    -350.985E-03        -1.02686
             186             136         4.51683         3.49669         3.88906         2.77870
             186             201         5.42820         2.54280         5.12072         1.54187
             187              81         3.75777         3.53305        -1.44178        -7.66351
             187             152         5.64172         3.53305        -3.84808        -8.91234
             188              81         3.75777         1.74656        -1.44178        -7.66351
             188             150         4.06182         5.38087        -3.34976        -4.66881
             189             213         7.54075         5.24810        -3.75221        -2.80649
             189             231         3.25360         3.10835        -1.82432        -1.07504
             190              42         13.0778         2.84821         5.37294         2.79198
             190              43         13.0778         3.43642         4.93666         2.74207
             191              36         5.66427         3.12757         4.98792         2.67568
             191              37         5.42825         3.49023         4.99609         2.79339
             192              42         3.36288         2.84821         5.37294         2.79198
             192             195         4.70837         4.30612         3.75097         3.81736
             193              55         5.29423         2.47834         4.81637         1.77686
             193              56         5.15437         2.31296         4.62182         1.67987
             194             326         2.03622         3.36726         1.57339         2.12626
             194             417         2.08985         2.89157         1.13490         1.93662
             195              58         4.51669         1.97316         3.96500         1.42147
             195             156         3.84243         2.26580         3.17202         1.59539
             196              57         4.91347         2.07777         3.81240         2.07777
             196              58         4.51669         1.97316         3.96500         1.42147
             197              57         4.91347         2.07777         3.81240         2.07777
             197             156         3.84243         2.26580         3.17202         1.59539
             198             158         1.55076         1.71987        -1.25737        -1.22299
             198             258         1.82929         1.94746        -1.51294        -1.13424
             199              44         2.13722         3.55643         5.20564         2.91909
             199             176         4.38978         4.10803         3.61659         3.53956
             200             120         1.87246         2.42537        -1.07775        -2.24644
             200             250         2.54511         2.30790        -1.50587        -1.88445
             201              64         2.28991         1.33691         1.59483     641.831E-03
             201              65         1.71494         1.78155     576.225E-03     642.839E-03
             202             121         1.36883         1.41426    -757.643E-03        -1.28292
             202             158         1.55076         1.71987        -1.25737        -1.22299
             203              73         1.53798         1.83815    -873.737E-03        -1.83815
             203             158         1.55076         1.71987        -1.25737        -1.22299
             204             259         1.05876     936.471E-03    -680.636E-03    -534.195E-03
             204             376         1.60382         1.58609        -1.01046    -678.532E-03
             205              55         5.29423         2.47834         4.81637         1.77686
             205             178         4.04469         2.93994         3.74202         1.92992
             206             186         4.06030         4.01204         3.48071         3.48925
             206             187         3.99480         3.80199         3.40104         3.00993
             207              79         4.33359         3.94770        -3.37137        -2.98548
             207             157         3.76822         3.77635        -3.42631        -2.35631
             208              74         1.73545         2.14125    -999.247E-03        -2.14125
             208             159         1.81991         1.85097        -1.48779        -1.29647
             209             158         1.55076         1.71987        -1.25737        -1.22299
             209             159         1.81991         1.85097        -1.48779        -1.29647
             210               2     154.348E-03     130.754E-03     23.3589E-03    -30.0503E-03
             210             164     574.151E-03     655.551E-03    -317.060E-03    -398.460E-03
             211             163         7.52210         6.68593        -4.29519        -2.23703
             211             240         3.37937         2.93381        -1.59969        -1.46613
             212              61         3.57589         1.39625         2.51374         1.39625
             212             162         2.24612         2.13800         1.67693         1.31418
             213              61         3.57589         1.39625         2.51374         1.39625
             213              62         3.36389         1.26825         2.22550         1.26825
             214              78         2.45187         4.37744        -1.76805        -3.69361
             214             172         2.59303         3.77045        -1.16766        -3.77045
             215              77         2.49423         3.36557        -1.42025        -3.36557
             215             166         2.59456         2.89764        -1.59662        -2.67410
             216             139         3.91688         4.22494         3.36021         3.31232
             216             207         5.03514         3.24410         4.73451         2.23669
             217             205         3.71240         8.62078        -4.58052        -8.09081
             217             321         3.23771         6.42084        -2.49129        -5.99355
             218              67         2.73706         1.84051    -967.301E-03    -837.612E-03
             218              68     804.409E-03     872.609E-03    -280.493E-03    -174.652E-03
             219              67         2.73706         1.84051    -967.301E-03    -837.612E-03
             219             165         1.79609         1.87152    -902.793E-03    -978.231E-03
             220             219         1.28732         1.08082    -550.882E-03    -969.141E-03
             220             327         1.36673         1.59403    -995.292E-03    -645.637E-03
             221              76         1.94876         3.10330        -1.50167        -2.65621
             221             166         2.59456         2.89764        -1.59662        -2.67410
             222              54         5.16304         2.71408         4.34119         2.40041
             222              55         5.29423         2.47834         4.81637         1.77686
             223              75         1.92096         2.46173        -1.14241        -2.46173
             223             173         1.90091         2.15796        -1.22718        -1.85233
             224             171         2.13539         2.51970         1.22936         2.14474
             224             290         2.41104         1.68744         1.49642     863.617E-03
             225              63         3.07321         1.13396         1.83102         1.13396
             225             169         1.88515         1.72030         1.00786     843.010E-03
             226             159         1.81991         1.85097        -1.48779        -1.29647
             226             173         1.90091         2.15796        -1.22718        -1.85233
             227              62         3.36389         1.26825         2.22550         1.26825
             227              63         3.07321         1.13396         1.83102         1.13396
             228              62         3.36389         1.26825         2.22550         1.26825
             228             170         2.07685         2.00303         1.45575         1.09729
             229              60         3.81309         1.54085         2.79346         1.54085
             229              61         3.57589         1.39625         2.51374         1.39625
             230              60         3.81309         1.54085         2.79346         1.54085
             230             171         2.13539         2.51970         1.22936         2.14474
             231             166         2.59456         2.89764        -1.59662        -2.67410
             231             172         2.59303         3.77045        -1.16766        -3.77045
             232             115     960.316E-03     937.200E-03    -747.875E-03    -459.563E-03
             232             259         1.05876     936.471E-03    -680.636E-03    -534.195E-03
             233             219         1.28732         1.08082    -550.882E-03    -969.141E-03
             233             328         1.77416         1.36476    -652.759E-03        -1.18419
             234              56         5.15437         2.31296         4.62182         1.67987
             234             175         4.56377         2.21800         4.29749         1.12461
             235             258         1.82929         1.94746        -1.51294        -1.13424
             235             397         2.19472         1.94833        -1.16738        -1.63198
             236             125         1.60512         2.13753    -871.127E-03        -1.96355
             236             232         1.73032         1.89672    -821.864E-03        -1.63039
             237              51         5.31089         3.04601         4.67021         2.51275
             237             181         2.92893         4.15700         2.30535         3.39904
             238             256         4.55217         2.14607        -4.00545        -1.57280
             238             367         5.07115         3.93701        -3.81479        -2.85603
             239             123         3.87146     219.034E-03         3.97509         2.96149
             239             282         4.12832         2.97463         3.80342         1.73486
             240             169         1.88515         1.72030         1.00786     843.010E-03
             240             229         1.91601         1.90070     147.146E-03         1.32240
             241              79         4.33359         3.94770        -3.37137        -2.98548
             241             177         4.72931         4.78697        -3.12371        -4.30586
             242              79         4.33359         3.94770        -3.37137        -2.98548
             242             157         3.76822         3.77635        -3.42631        -2.35631
             243              80         8.20573         3.13468        -5.35263        -3.13468
             243             180         4.27966         8.58768        -3.85662        -8.58405
             244             377         2.27216         2.36172    -559.434E-03    -469.873E-03
             244             422         2.64232         2.57324        -1.65773    -860.778E-03
             245              53         5.13397         2.72461         4.33093         2.36446
             245              54         5.16304         2.71408         4.34119         2.40041
             246              53         5.13397         2.72461         4.33093         2.36446
             246             179         3.68538         3.37495         3.19529         2.65668
             247             169         1.88515         1.72030         1.00786     843.010E-03
             247             170         2.07685         2.00303         1.45575         1.09729
             248             164     574.151E-03     655.551E-03    -317.060E-03    -398.460E-03
             248             291         1.06221         1.03538    -499.916E-03    -725.635E-03
             249              51         5.31089         3.04601         4.67021         2.51275
             249              52         5.33311         2.59705         4.95612         1.80162
             250              83         2.93955         5.46595        -1.88864        -5.46595
             250             182         2.33665         5.83501        -1.49519        -5.51900
             251             150         4.06182         5.38087        -3.34976        -4.66881
             251             182         2.33665         5.83501        -1.49519        -5.51900
             252              50         5.81119         2.84552         5.49489         2.05655
             252             183         4.09361         3.96723         3.45467         3.54161
             253              49         5.94621         2.85750         5.58922         2.12681
             253              50         5.81119         2.84552         5.49489         2.05655
             254              48         5.77490         3.10237         4.96963         2.74816
             254             186         4.06030         4.01204         3.48071         3.48925
             255             359         1.17805         1.32269    -555.771E-03    -818.848E-03
             255             477         1.77375         1.65304    -807.364E-03    -745.829E-03
             256             188         4.27333         4.19846         3.88367         3.34819
             256             266         2.43061         5.04727         1.48379         4.45527
             257             222         1.47704         1.66591    -802.283E-03        -1.50719
             257             223         1.42703         1.31322    -880.463E-03        -1.05782
             258              49         5.94621         2.85750         5.58922         2.12681
             258             186         4.06030         4.01204         3.48071         3.48925
             259              48         5.77490         3.10237         4.96963         2.74816
             259              49         5.94621         2.85750         5.58922         2.12681
             260             174         2.17191         2.55707        -1.43996        -2.21440
             260             298         2.62702         2.76261        -1.34151        -2.41994
             261              47         5.78996         3.11830         5.02728         2.69073
             261             187         3.99480         3.80199         3.40104         3.00993
             262              94         3.52319         6.28955        -2.27763        -5.37650
             262             199         3.16077         4.30425        -2.41204        -3.92995
             263             103         4.22808         2.93305        -1.34968        -7.35598
             263             131         4.02447         5.17550        -2.40073        -5.17550
             264             102         3.17981         5.67350        -4.37074        -4.61356
             264             205         3.17981         8.62078        -4.58052        -8.09081
             265              32         14.3457         3.52988         5.18661         2.85198
             265              33         14.3457         3.48561         5.34684         2.91638
             266              32         2.27692         3.52988         5.18661         2.85198
             266             188         4.27333         4.19846         3.88367         3.34819
             267              30         5.95287         3.03612         5.66787         2.06232
             267              31         5.82917         3.07776         5.57683         2.11297
             268             140         3.10786         5.10634        -2.65861        -4.26156
             268             203         3.37561         4.75760        -2.61823        -4.15313
             269              87         2.89819         5.60087        -2.16894        -5.36617
             269             189         4.32579         3.95954        -3.71977        -3.53298
             270             147         3.78983         4.11137        -3.49867        -3.57948
             270             189         4.32579         3.95954        -3.71977        -3.53298
             271              88         2.82863         5.23360        -2.11910        -5.03270
             271             191         3.36584         3.68249        -2.64904        -3.21297
             272             189         4.32579         3.95954        -3.71977        -3.53298
             272             191         3.36584         3.68249        -2.64904        -3.21297
             273              38         5.88116         3.10395         5.62072         2.14539
             273              39         13.7676         3.24385         5.68249         2.25965
             274             138         4.39477         3.40267         4.01522         2.30072
             274             139         3.91688         4.22494         3.36021         3.31232
             275              89         2.89694         5.34693        -2.26335        -5.15720
             275             193         3.45603         3.74670        -3.03645        -3.15007
             276             191         3.36584         3.68249        -2.64904        -3.21297
             276             193         3.45603         3.74670        -3.03645        -3.15007
             277              90         2.97806         5.45220        -2.34244        -5.28605
             277             194         3.56578         4.11218        -3.17693        -3.73175
             278             193         3.45603         3.74670        -3.03645        -3.15007
             278             194         3.56578         4.11218        -3.17693        -3.73175
             279              35         5.69939         3.09401         5.00826         2.63153
             279             196         4.03194         3.79187         3.55031         3.04255
             280             188         4.27333         4.19846         3.88367         3.34819
             280             204         5.11838         3.29734         4.55790         2.66655
             281              91         2.96862         5.50082        -2.30238        -5.29513
             281             197         3.01067         4.73247        -2.14154        -4.59562
             282             194         3.56578         4.11218        -3.17693        -3.73175
             282             197         3.01067         4.73247        -2.14154        -4.59562
             283              99         3.00860         6.12845        -2.55114        -5.77225
             283             135         3.71634         4.85798        -3.09119        -4.67988
             284             157         3.76822         3.77635        -3.42631        -2.35631
             284             177         4.72931         4.78697        -3.12371        -4.30586
             285              96         2.85941         6.00723        -2.28852        -5.65853
             285             203         3.37561         4.75760        -2.61823        -4.15313
             286              97         3.23326         3.74800        -2.50904        -5.83767
             286             198         3.87506         3.95097        -3.47091        -3.43691
             287              33         2.59854         3.48561         5.34684         2.91638
             287             204         5.11838         3.29734         4.55790         2.66655
             288             141         3.44478         3.94417        -2.82982        -3.68495
             288             199         3.16077         4.30425        -2.41204        -3.92995
             289              37         5.42825         3.49023         4.99609         2.79339
             289              38         5.88116         3.10395         5.62072         2.14539
             290              23         4.57452         3.07541         4.35252         2.18115
             290             212         3.31201         3.67981         3.19625         2.64164
             291              27         5.73393         3.01359         5.50055         1.98499
             291             208         5.17310         2.60688         4.86367         1.58055
             292             247         3.42751         3.31829        -3.14354        -2.87436
             292             307         3.42995         3.44024        -3.04874        -3.11646
             293             133         3.57455         3.86618         3.06141         3.07296
             293             212         3.31201         3.67981         3.19625         2.64164
             294             210         4.99270         7.39513        -2.91489        -9.64356
             294             316         3.68505         5.57508        -3.31157        -5.46754
             295             350         3.93916         3.53676        -3.93916        -1.27136
             295             401         3.39275         2.94597        -2.83963        -1.37674
             296              25         5.26593         3.39079         4.93262         2.57539
             296              26         5.78575         3.05258         5.59364         2.06915
             297             358         1.65540         1.88307    -915.152E-03    -797.093E-03
             297             432         1.77320         1.89316    -748.959E-03    -868.920E-03
             298             173         1.90091         2.15796        -1.22718        -1.85233
             298             295         2.11450         1.80720        -1.43002        -1.25271
             299             131         4.02447         5.17550        -2.40073        -5.17550
             299             214         3.21756         3.10948        -2.20736        -2.65561
             300              98         3.18843         6.26700        -2.68508        -6.05836
             300             206         4.02748         4.66325        -3.23707        -4.28083
             301             198         3.87506         3.95097        -3.47091        -3.43691
             301             206         4.02748         4.66325        -3.23707        -4.28083
             302              29         5.77985         3.31576         5.15782         2.63273
             302             207         5.03514         3.24410         4.73451         2.23669
             303              23         4.57452         3.07541         4.35252         2.18115
             303              24         4.84938         3.26409         4.61908         2.37063
             304             116     614.464E-03     420.065E-03    -437.030E-03    -147.013E-03
             304             268     951.745E-03         1.07433    -951.745E-03    -221.960E-03
             305             130         2.36656         4.26235         2.25556         3.17051
             305             257         1.66413         4.47485     602.091E-03         4.08271
             306             103         4.22808         3.25944        -1.34968        -7.35598
             306             210         4.99270         3.25944        -2.91489        -9.64356
             307             205         1.72482         8.62078        -4.58052        -8.09081
             307             210         4.99270         11.9005        -2.91489        -9.64356
             308              25         5.26593         3.39079         4.93262         2.57539
             308             211         4.87455         3.09960         4.54960         2.31339
             309             122         3.26442         4.38306        -2.85753        -3.97616
             309             276         2.58797         4.64743        -1.90899        -4.42572
             310               1     173.860E-03     131.734E-03    -128.401E-03     131.734E-03
             310               9     861.282E-03     879.011E-03    -815.824E-03     390.894E-03
             311             167         1.26694         1.03655    -766.808E-03    -782.558E-03
             311             261         1.54126         1.63813    -919.482E-03        -1.01635
             312             117         2.54845         1.97342    -113.189E-03    -963.910E-03
             312             168         1.92267         1.55051     47.7722E-03     683.195E-03
             313               5         10.7935         9.33930        -10.7935        -7.45143
             313              11         3.07775         2.28982    -417.076E-03    -700.973E-03
             314              15         2.72597         2.00722         2.72597     833.717E-03
             314             221         2.32981         1.94409         2.32981     586.794E-03
             315             112         1.11477         1.08764    -532.438E-03        -1.08764
             315             223         1.42703         1.31322    -880.463E-03        -1.05782
             316             105         2.44263         3.53452        -1.32998        -3.53452
             316             214         3.21756         3.10948        -2.20736        -2.65561
             317             206         4.02748         4.66325        -3.23707        -4.28083
             317             274         5.03917         2.60922        -4.83582        -2.14776
             318             328         1.77416         1.36476    -652.759E-03        -1.18419
             318             358         1.65540         1.88307    -915.152E-03    -797.093E-03
             319             141         3.44478         3.94417        -2.82982        -3.68495
             319             246         3.44868         3.49654        -2.71230        -3.14244
             320              13         1.97816         1.82737         1.97816     318.610E-03
             320             119         1.72456         2.00831         1.01325    -304.817E-03
             321              11         3.07775         2.28982    -417.076E-03    -700.973E-03
             321              12         1.67404         1.99540     992.860E-03     184.898E-03
             322             261         1.54126         1.63813    -919.482E-03        -1.01635
             322             373         1.95629         1.77263    -832.980E-03        -1.22790
             323              19         4.10562         2.32623         4.10562         1.30025
             323             218         3.06631         2.65817         3.06631         1.34225
             324              18         3.49582         2.55265         3.49582         1.47715
             324              19         4.10562         2.32623         4.10562         1.30025
             325             216         2.21288         1.54474         1.63938     216.861E-03
             325             272         1.85881         2.31683         1.07653    -722.467E-03
             326             113     870.618E-03     716.580E-03    -355.840E-03    -646.024E-03
             326             115     960.316E-03     937.200E-03    -747.875E-03    -459.563E-03
             327             113     870.618E-03     716.580E-03    -355.840E-03    -646.024E-03
             327             219         1.28732         1.08082    -550.882E-03    -969.141E-03
             328             149         3.28962         4.47831         2.46386         4.21215
             328             238         3.64444         3.44806         2.52861         3.26320
             329              15         2.72597         2.00722         2.72597     833.717E-03
             329              16         3.14881         1.82193         3.14881     762.300E-03
             330             111         1.18429         1.61126    -866.842E-03        -1.29381
             330             222         1.47704         1.66591    -802.283E-03        -1.50719
             331             132         1.43049         2.00828    -996.715E-03        -1.57451
             331             222         1.47704         1.66591    -802.283E-03        -1.50719
             332             191         3.36584         3.68249        -2.64904        -3.21297
             332             252         4.61945         2.59073        -3.93663        -2.27132
             333             363         3.60575         2.53699         2.65692         1.86152
             333             408         3.80602         2.11761         2.73806         1.82469
             334             141         3.44478         3.94417        -2.82982        -3.68495
             334             199         3.16077         4.30425        -2.41204        -3.92995
             335             181         2.92893         4.15700         2.30535         3.39904
             335             228         3.46088         3.46088         2.75974         2.75974
             336              11         3.07775         2.28982    -417.076E-03    -700.973E-03
             336             224         2.14971         2.59628    -242.731E-03    -866.870E-03
             337               2     154.348E-03     130.754E-03     23.3589E-03    -30.0503E-03
             337             241     768.676E-03         1.00904    -434.420E-03    -674.786E-03
             338              68     804.409E-03     872.609E-03    -280.493E-03    -174.652E-03
             338             165         1.79609         1.87152    -902.793E-03    -978.231E-03
             339             153         3.49527         2.15035         2.57763         1.76091
             339             156         3.84243         2.26580         3.17202         1.59539
             340             143         2.65293         5.05822        -1.87484        -4.86396
             340             246         3.44868         3.49654        -2.71230        -3.14244
             341             124         2.61903         2.74352         2.61903         1.37984
             341             134         2.94069         1.80316         2.94069     471.535E-03
             342             239         2.04057         2.13820        -1.10517        -1.76282
             342             250         2.54511         2.30790        -1.50587        -1.88445
             343             225         2.02585         2.34017        -1.24542     240.092E-03
             343             240         3.37937         2.93381        -1.59969        -1.46613
             344             168         1.92267         1.55051     47.7722E-03     683.195E-03
             344             285         2.36598         1.50530    -420.815E-03     876.104E-03
             345             116     614.464E-03     420.065E-03    -437.030E-03    -147.013E-03
             345             259         1.05876     936.471E-03    -680.636E-03    -534.195E-03
             346              94         3.52319     844.928E-03        -2.27763        -5.37650
             346             140         3.10786         5.10634        -2.65861        -4.26156
             347             229         1.91601         1.90070     147.146E-03         1.32240
             347             293         1.90059         2.16881         1.37326     735.747E-03
             348             172         2.59303         3.77045        -1.16766        -3.77045
             348             236         2.76986         3.38436        -1.99547        -2.36825
             349             147         3.78983         4.11137        -3.49867        -3.57948
             349             189         4.32579         3.95954        -3.71977        -3.53298
             350             193         3.45603         3.74670        -3.03645        -3.15007
             350             278         3.32058         3.81985        -3.23673        -3.03143
             351             193         3.45603         3.74670        -3.03645        -3.15007
             351             194         3.56578         4.11218        -3.17693        -3.73175
             352             311         2.89122         4.39508         2.19586         3.40875
             352             413         1.64049         4.87244     2.50138E-03         4.34210
             353             221         2.32981         1.94409         2.32981     586.794E-03
             353             331         2.17698         1.99405         1.66664     566.929E-03
             354             185         3.59593         3.96302        -3.27213        -3.50213
             354             247         3.42751         3.31829        -3.14354        -2.87436
             355             209         2.69626         6.74407        -1.55253        -6.38800
             355             321         3.23771         6.42084        -2.49129        -5.99355
             356             480         2.67656         2.16552     97.4594E-03         1.54833
             356             481         2.34320         1.37134     388.969E-03     984.075E-03
             357             241     768.676E-03         1.00904    -434.420E-03    -674.786E-03
             357             344         2.18032         2.31312        -1.29361        -1.42640
             358             126         3.08434         2.90726         3.05155         1.67248
             358             323         2.76617         2.61547         1.99190         1.89368
             359             289         2.57714         3.40844         2.51340         1.86223
             359             302         3.58070         2.58841         3.45196         1.14787
             360             211         4.87455         3.09960         4.54960         2.31339
             360             315         4.21274         2.83300         3.86728         1.95035
             361             179         3.68538         3.37495         3.19529         2.65668
             361             303         3.74060         2.52271         3.31322         1.63630
             362             243         3.67224         5.34044        -3.10472        -5.01426
             362             365         2.31573         5.04107        -1.76843        -4.75050
             363             151         3.49463         3.37421         2.71509         2.78697
             363             277         3.02904         3.69065         2.17896         2.63411
             364             310         3.30483         4.09164         2.64105         3.19979
             364             410         1.24929         4.91046     404.001E-03         4.35919
             365             423         2.52053         2.18477         1.38771         1.78096
             365             495         2.68474         2.33469         1.22385         1.05899
             366             155         3.98328         2.52963         3.04325         2.08986
             366             300         3.27430         2.57214         2.88480         1.26531
             367             150         4.06182         5.38087        -3.34976        -4.66881
             367             152         5.64172         2.69160        -3.84808        -8.91234
             368             243         3.67224         5.34044        -3.10472        -5.01426
             368             342         2.75150         4.31775        -2.14122        -4.01555
             369             276         2.58797         4.64743        -1.90899        -4.42572
             369             385         3.22459         3.27685        -2.76733        -2.96069
             370             291         1.06221         1.03538    -499.916E-03    -725.635E-03
             370             359         1.17805         1.32269    -555.771E-03    -818.848E-03
             371             161         5.69280         4.92477        -3.63587        -2.68666
             371             244         2.69261         3.29244        -2.05320        -1.21129
             372             187         3.99480         3.80199         3.40104         3.00993
             372             305         3.27484         4.10393         2.45830         3.07935
             373             472         4.60263     888.215E-03        -4.28537    -377.572E-03
             373             498         2.81707         1.70290        -1.91118    -983.621E-03
             374             206         4.02748         4.66325        -3.23707        -4.28083
             374             372         5.74405         1.82675        -5.20866    -894.754E-03
             375             380         2.47340         1.76955        -1.08491     274.710E-03
             375             476         2.36829         1.79947    -981.073E-03    -763.391E-03
             376             217         2.05869         2.82363    -961.397E-03        -2.82363
             376             250         2.54511         2.30790        -1.50587        -1.88445
             377             311         2.89122         4.39508         2.19586         3.40875
             377             387         1.57529         4.71420     450.579E-03         4.07667
             378             189         4.32579         3.95954        -3.71977        -3.53298
             378             191         3.36584         3.68249        -2.64904        -3.21297
             379             309         3.35099         3.56646        -2.57707        -3.03974
             379             351         4.00592         2.48155        -3.23715        -1.46547
             380             122         3.26442         4.38306        -2.85753        -3.97616
             380             307         3.42995         3.44024        -3.04874        -3.11646
             381             123         1.65794     77.3903E-03         3.97509         2.96149
             381             308         5.03613         2.24231         4.23849         1.64394
             382             242         3.05121         4.62503        -2.48337        -4.05720
             382             276         2.58797         4.64743        -1.90899        -4.42572
             383             180         5.46462         8.58768        -3.85662        -8.58405
             383             288         3.91413         5.87290        -2.64472        -5.15064
             384             142         4.77210         1.77665         4.15436         3.47379
             384             306         3.88380         3.88909         3.34458         2.77964
             385             203         3.37561         4.75760        -2.61823        -4.15313
             385             270         3.65920         3.17900        -3.06158        -2.74207
             386             217         2.05869         2.82363    -961.397E-03        -2.82363
             386             267         2.81688         2.63757        -1.65801        -2.16891
             387             275         2.94275         3.73864         2.56692         2.70352
             387             360         2.96255         2.83876         1.42487         2.19041
             388             289         2.57714         3.40844         2.51340         1.86223
             388             300         3.27430         2.57214         2.88480         1.26531
             389               9     861.282E-03     879.011E-03    -815.824E-03     390.894E-03
             389             128         1.54100         2.20912    -811.136E-03        -1.12305
             390             346         2.24602         1.66786        -1.47548        -1.07415
             390             433         1.86296         2.29642        -1.36617    -766.116E-03
             391             496         2.57824         3.61296        -2.14625        -2.94407
             391             578         3.03533         1.44272        -2.80443    -715.679E-03
             392             369         1.81624         1.96633        -1.04136        -1.19145
             392             469         2.16646         1.95691        -1.11407    -904.524E-03
             393             528         2.64854         1.74853         1.44467    -98.4942E-03
             393             620         2.25880         2.08938     987.254E-03        -1.03629
             394             134         2.94069         1.80316         2.94069     471.535E-03
             394             330         3.03367         1.22239         2.24328     297.735E-03
             395             273         2.36185         3.32644         1.70459         2.60344
             395             418         2.11966         3.18766     706.474E-03         2.70360
             396             330         3.03367         1.22239         2.24328     297.735E-03
             396             337         2.55318         1.87806         1.44694     232.862E-03
             397             201         5.42820         2.54280         5.12072         1.54187
             397             313         3.76394         3.63599         3.14223         3.01059
             398             286         1.95169         2.52448     697.496E-03         2.14952
             398             296         1.84343         3.07437         1.39215         1.86848
             399             407         2.97466         3.12049        -2.16734        -2.43123
             399             501         1.05140         3.78658    -64.3808E-03        -3.36971
             400             236         2.76986         3.38436        -1.99547        -2.36825
             400             298         2.62702         2.76261        -1.34151        -2.41994
             401             155         3.98328         2.52963         3.04325         2.08986
             401             265         3.01821         2.64617         2.62364         1.29047
             402             205         7.99462         8.62078        -4.58052        -8.09081
             402             316         3.68505         5.57508        -3.31157        -5.46754
             403             158         1.55076         1.71987        -1.25737        -1.22299
             403             159         1.81991         1.85097        -1.48779        -1.29647
             404             456         3.27829         3.92995        -2.22360        -2.87526
             404             502         3.19245         3.48437        -1.98640        -1.74517
             405             168         1.92267         1.55051     47.7722E-03     683.195E-03
             405             225         2.02585         2.34017        -1.24542     240.092E-03
             406             162         2.24612         2.13800         1.67693         1.31418
             406             293         1.90059         2.16881         1.37326     735.747E-03
             407             162         2.24612         2.13800         1.67693         1.31418
             407             290         2.41104         1.68744         1.49642     863.617E-03
             408             159         1.81991         1.85097        -1.48779        -1.29647
             408             295         2.11450         1.80720        -1.43002        -1.25271
             409             124         2.61903         2.74352         2.61903         1.37984
             409             218         3.06631         2.65817         3.06631         1.34225
             410             124         2.61903         2.74352         2.61903         1.37984
             410             260         2.18145         2.98298         1.14856         2.15567
             411             160         1.01196     851.311E-03    -425.553E-03    -764.696E-03
             411             291         1.06221         1.03538    -499.916E-03    -725.635E-03
             412             213     394.301E-03         5.24810        -3.75221        -2.80649
             412             220     394.301E-03         5.31184        -3.99174        -2.27663
             413             131         4.02447         5.17550        -2.40073        -5.17550
             413             317         4.54178         5.34840        -3.17375        -4.99825
             414             234         3.92359         3.61566         3.26569         2.53891
             414             356         1.69581         4.38438     556.890E-03         3.72753
             415             202         4.01220         4.28572        -3.72002        -3.78605
             415             312         4.75562         2.74073        -4.39961        -2.30750
             416             211         4.87455         3.09960         4.54960         2.31339
             416             320         5.23709         1.85079         4.46868         1.02881
             417             138         4.39477         3.40267         4.01522         2.30072
             417             319         4.53693         2.85725         3.34291         2.15404
             418             406         3.44490         2.46201        -2.81170        -2.33906
             418             426         2.16723         3.57683        -1.63063        -2.88340
             419             201         5.42820         2.54280         5.12072         1.54187
             419             207         5.03514         3.24410         4.73451         2.23669
             420             207         5.03514         3.24410         4.73451         2.23669
             420             311         2.89122         4.39508         2.19586         3.40875
             421             183         4.09361         3.96723         3.45467         3.54161
             421             279         3.32183         3.84484         2.22606         3.60682
             422             266         2.43061         5.04727         1.48379         4.45527
             422             340         1.67711         4.30461     602.690E-03         3.54150
             423             157         3.76822         3.77635        -3.42631        -2.35631
             423             249         3.31938         4.71322        -2.19129        -3.63509
             424               1     173.860E-03     131.734E-03    -128.401E-03     131.734E-03
             424             268     951.745E-03         1.07433    -951.745E-03    -221.960E-03
             425             130         2.36656         4.26235         2.25556         3.17051
             425             212         3.31201         3.67981         3.19625         2.64164
             426             212         3.31201         3.67981         3.19625         2.64164
             426             275         2.94275         3.73864         2.56692         2.70352
             427             194         3.56578         4.11218        -3.17693        -3.73175
             427             197         3.01067         4.73247        -2.14154        -4.59562
             428             183         4.09361         3.96723         3.45467         3.54161
             428             238         3.64444         3.44806         2.52861         3.26320
             429             261         1.54126         1.63813    -919.482E-03        -1.01635
             429             390         1.76626         1.79990        -1.03429    -729.609E-03
             430             196         4.03194         3.79187         3.55031         3.04255
             430             310         3.30483         4.09164         2.64105         3.19979
             431             119         1.72456         2.00831         1.01325    -304.817E-03
             431             216         2.21288         1.54474         1.63938     216.861E-03
             432             189         4.32579         3.95954        -3.71977        -3.53298
             432             333         3.86947         3.87756        -3.11233        -3.12042
             433             267         2.81688         2.63757        -1.65801        -2.16891
             433             324         3.42856         2.73173        -2.47798        -1.93801
             434             214         3.21756         3.10948        -2.20736        -2.65561
             434             325         4.16819         3.08183        -2.78389        -2.53717
             435             396         2.39372         1.82202    -899.014E-03        -1.82202
             435             440         2.52887         2.16143    -892.863E-03        -1.61579
             436             251         3.71175         3.34818        -2.77023        -3.13379
             436             278         3.32058         3.81985        -3.23673        -3.03143
             437             356         1.69581         4.38438     556.890E-03         3.72753
             437             435         1.98077         3.08933     871.489E-03         1.98005
             438             130         2.36656         4.26235         2.25556         3.17051
             438             275         2.94275         3.73864         2.56692         2.70352
             439             283         4.19749         3.99177         3.26857         3.15670
             439             349         3.10062         3.05985         2.49026         1.97682
             440             142         4.77210     575.351E-03         4.15436         3.47379
             440             308         5.03613         2.24231         4.23849         1.64394
             441             228         3.46088         3.46088         2.75974         2.75974
             441             277         3.02904         3.69065         2.17896         2.63411
             442             267         2.81688         2.63757        -1.65801        -2.16891
             442             419         3.26018         2.69049        -2.24103        -1.67134
             443             155         3.98328         2.52963         3.04325         2.08986
             443             175         4.56377         2.21800         4.29749         1.12461
             444             158         1.55076         1.71987        -1.25737        -1.22299
             444             294         1.71026         1.72542        -1.23041        -1.09039
             445             237         3.35341         3.69458         3.00305         2.75898
             445             279         3.32183         3.84484         2.22606         3.60682
             446             190         5.09108         3.45548         4.81521         2.50862
             446             280         2.71509         4.65915         2.05726         4.00132
             447             190         5.09108         3.45548         4.81521         2.50862
             447             226         4.01252         3.57903         3.23464         3.00584
             448             430         2.63226         3.38781        -1.07883        -2.83469
             448             482         2.87744         2.30959        -1.76159        -1.19374
             449             226         4.01252         3.57903         3.23464         3.00584
             449             283         4.19749         3.99177         3.26857         3.15670
             450             235         3.51916         4.37874         3.03159         3.48939
             450             283         4.19749         3.99177         3.26857         3.15670
             451             192         4.62832         3.24155         4.08399         2.39760
             451             281         3.39350         3.73877         2.29025         3.39399
             452             233         3.80716         3.50838         3.27780         2.73898
             452             281         3.39350         3.73877         2.29025         3.39399
             453             123         12.1174         5.12867         3.97509         2.96149
             453             192         4.62832         3.24155         4.08399         2.39760
             454             192         4.62832         3.24155         4.08399         2.39760
             454             282         4.12832         2.97463         3.80342         1.73486
             455             232         1.73032         1.89672    -821.864E-03        -1.63039
             455             346         2.24602         1.66786        -1.47548        -1.07415
             456             148         4.86670         2.99427         4.00703         2.54266
             456             204         5.11838         3.29734         4.55790         2.66655
             457             204         5.11838         3.29734         4.55790         2.66655
             457             284         2.38907         4.93993         1.60352         4.48400
             458             250         2.54511         2.30790        -1.50587        -1.88445
             458             374         3.15117         2.05966        -2.20885        -1.11734
             459             391         2.47128         2.59839        -1.65182        -1.55218
             459             396         2.39372         1.82202    -899.014E-03        -1.82202
             460             171         2.13539         2.51970         1.22936         2.14474
             460             286         1.95169         2.52448     697.496E-03         2.14952
             461             156         3.84243         2.26580         3.17202         1.59539
             461             297         2.48640         2.85014         2.09696         1.52235
             462             350         3.93916         3.53676        -3.93916        -1.27136
             462             355         3.94771         3.82345        -2.23118        -3.46062
             463             342         2.75150         4.31775        -2.14122        -4.01555
             463             385         3.22459         3.27685        -2.76733        -2.96069
             464             167         1.26694         1.03655    -766.808E-03    -782.558E-03
             464             261         1.54126         1.63813    -919.482E-03        -1.01635
             465             167         1.26694         1.03655    -766.808E-03    -782.558E-03
             465             287         1.46947         1.39510    -883.890E-03    -748.772E-03
             466             184         4.27480         3.96985         3.96870         3.37787
             466             196         4.03194         3.79187         3.55031         3.04255
             467             178         4.04469         2.93994         3.74202         1.92992
             467             289         2.57714         3.40844         2.51340         1.86223
             468             410         1.24929         4.91046     404.001E-03         4.35919
             468             411         1.67339         4.53267     383.206E-03         4.02453
             469             171         2.13539         2.51970         1.22936         2.14474
             469             286         1.95169         2.52448     697.496E-03         2.14952
             470             462         3.69968         1.35786         3.09485    -16.8300E-03
             470             574         2.82946         1.41469         1.59030    -181.765E-03
             471             361         2.36276         3.10361        -1.71576        -1.42353
             471             431         2.35523         2.84775        -1.52162        -1.15604
             472             174         2.17191         2.55707        -1.43996        -2.21440
             472             292         2.62186         1.93713        -1.49677        -1.63150
             473             153         3.49527         2.15035         2.57763         1.76091
             473             296         1.84343         3.07437         1.39215         1.86848
             474             442         2.01805         2.24304     829.694E-03         1.05468
             474             484         2.74897         1.45800         1.68799     313.677E-03
             475             274         5.03917         2.60922        -4.83582        -2.14776
             475             472         4.60263     888.215E-03        -4.28537    -377.572E-03
             476             280         2.71509         4.65915         2.05726         4.00132
             476             339         3.23252         2.78167         2.02865         2.28598
             477             248         2.64852         4.63129         1.98096         3.96373
             477             356         1.69581         4.38438     556.890E-03         3.72753
             478             238         3.64444         3.44806         2.52861         3.26320
             478             279         3.32183         3.84484         2.22606         3.60682
             479             174         2.17191         2.55707        -1.43996        -2.21440
             479             292         2.62186         1.93713        -1.49677        -1.63150
             480             325         4.16819         3.08183        -2.78389        -2.53717
             480             412         3.27154         3.23561        -1.81588        -2.73053
             481             357         2.15855         2.51710        -2.14874    -904.197E-03
             481             361         2.36276         3.10361        -1.71576        -1.42353
             482             249         3.31938         4.71322        -2.19129        -3.63509
             482             299         3.48641         3.59920        -2.59803        -2.51204
             483             302         3.58070         2.58841         3.45196         1.14787
             483             405         3.16101         1.92363         2.17770     990.731E-03
             484             324         3.42856         2.73173        -2.47798        -1.93801
             484             325         4.16819         3.08183        -2.78389        -2.53717
             485             157         3.76822         3.77635        -3.42631        -2.35631
             485             299         3.48641         3.59920        -2.59803        -2.51204
             486             236         2.76986         3.38436        -1.99547        -2.36825
             486             299         3.48641         3.59920        -2.59803        -2.51204
             487             364         4.07722         3.29366        -3.52746        -2.35702
             487             367         5.07115         3.93701        -3.81479        -2.85603
             488             351         4.00592         2.48155        -3.23715        -1.46547
             488             428         2.34167         2.69164        -1.06720        -1.73844
             489             312         4.75562         2.74073        -4.39961        -2.30750
             489             414         4.84864         1.88082        -4.24221        -1.66204
             490             441         1.85184         3.19084     313.797E-03         1.69264
             490             587         2.70459         2.17916     175.710E-03     554.988E-03
             491             318         3.35439         4.63949        -2.69175        -4.42389
             491             414         4.84864         1.88082        -4.24221        -1.66204
             492             246         3.44868         3.49654        -2.71230        -3.14244
             492             334         4.25857         2.06234        -3.71403        -1.16100
             493             151         3.49463         3.37421         2.71509         2.78697
             493             303         3.74060         2.52271         3.31322         1.63630
             494             151         3.49463         3.37421         2.71509         2.78697
             494             277         3.02904         3.69065         2.17896         2.63411
             495             152         5.64172         3.86074        -3.84808        -8.91234
             495             243         3.67224         5.34044        -3.10472        -5.01426
             496             152         5.64172         8.02751        -3.84808        -8.91234
             496             304         3.23820         5.98687        -2.84830        -5.83830
             497             180         7.32484         8.58768        -3.85662        -8.58405
             497             304         3.23820         5.98687        -2.84830        -5.83830
             498             146         4.86936         3.09033         4.21936         2.41610
             498             187         3.99480         3.80199         3.40104         3.00993
             499             271         3.65427         3.29137        -3.31588        -2.37908
             499             309         3.35099         3.56646        -2.57707        -3.03974
             500             143         2.65293         5.05822        -1.87484        -4.86396
             500             309         3.35099         3.56646        -2.57707        -3.03974
             501             485         1.49386         3.42648    -593.837E-03        -3.38201
             501             500         1.80695         2.81907        -1.29753        -1.59674
             502             272         1.85881         2.31683         1.07653    -722.467E-03
             502             332         2.28133         2.26813    -139.399E-03    -966.099E-03
             503             270         3.65920         3.17900        -3.06158        -2.74207
             503             364         4.07722         3.29366        -3.52746        -2.35702
             504             278         3.32058         3.81985        -3.23673        -3.03143
             504             352         2.37158         3.61769        -1.13098        -3.56255
             505             247         3.42751         3.31829        -3.14354        -2.87436
             505             406         3.44490         2.46201        -2.81170        -2.33906
             506             148         4.86670         2.99427         4.00703         2.54266
             506             196         4.03194         3.79187         3.55031         3.04255
             507             148         4.86670         2.99427         4.00703         2.54266
             507             310         3.30483         4.09164         2.64105         3.19979
             508             139         3.91688         4.22494         3.36021         3.31232
             508             311         2.89122         4.39508         2.19586         3.40875
             509             385         3.22459         3.27685        -2.76733        -2.96069
             509             455         2.48790         2.58465        -2.18959        -2.16307
             510             244         2.69261         3.29244        -2.05320        -1.21129
             510             344         2.18032         2.31312        -1.29361        -1.42640
             511             165         1.79609         1.87152    -902.793E-03    -978.231E-03
             511             241     768.676E-03         1.00904    -434.420E-03    -674.786E-03
             512             240         3.37937         2.93381        -1.59969        -1.46613
             512             345         2.63008         2.57397        -1.56823    -657.347E-03
             513             138         4.39477         3.40267         4.01522         2.30072
             513             208         5.17310         2.60688         4.86367         1.58055
             514             202         4.01220         4.28572        -3.72002        -3.78605
             514             274         5.03917         2.60922        -4.83582        -2.14776
             515             245         3.29600         3.07526        -2.64435    -981.872E-03
             515             341         3.19557         2.78927        -2.21456        -1.32514
             516             240         3.37937         2.93381        -1.59969        -1.46613
             516             245         3.29600         3.07526        -2.64435    -981.872E-03
             517             328         1.77416         1.36476    -652.759E-03        -1.18419
             517             358         1.65540         1.88307    -915.152E-03    -797.093E-03
             518             390         1.76626         1.79990        -1.03429    -729.609E-03
             518             438         1.85667         1.93073    -807.737E-03    -881.792E-03
             519             288         3.91413         5.87290        -2.64472        -5.15064
             519             355         3.94771         3.82345        -2.23118        -3.46062
             520             315         4.21274         2.83300         3.86728         1.95035
             520             319         4.53693         2.85725         3.34291         2.15404
             521             189         4.32579         3.95954        -3.71977        -3.53298
             521             254         4.25447         3.11484        -3.87909        -2.75551
             522             215         3.56759         2.58464         3.20388         1.73233
             522             323         2.76617         2.61547         1.99190         1.89368
             523             318         3.35439         4.63949        -2.69175        -4.42389
             523             322         3.16348         5.28920        -2.40784        -5.11084
             524             307         3.42995         3.44024        -3.04874        -3.11646
             524             362         2.89865         3.19913        -2.52753        -2.84195
             525             307         3.42995         3.44024        -3.04874        -3.11646
             525             335         3.15810         2.77864        -3.10989        -2.14816
             526             137         2.77646         6.04181        -1.60522        -6.04181
             526             318         3.35439         4.63949        -2.69175        -4.42389
             527             312         4.75562         2.74073        -4.39961        -2.30750
             527             318         3.35439         4.63949        -2.69175        -4.42389
             528             209         2.69626         6.74407        -1.55253        -6.38800
             528             322         3.16348         5.28920        -2.40784        -5.11084
             529             273         2.36185         3.32644         1.70459         2.60344
             529             415         2.68420         3.21061         1.11483         2.57000
             530             255         4.53950         2.13297         4.18722     967.031E-03
             530             360         2.96255         2.83876         1.42487         2.19041
             531             165         1.79609         1.87152    -902.793E-03    -978.231E-03
             531             344         2.18032         2.31312        -1.29361        -1.42640
             532             396         2.39372         1.82202    -899.014E-03        -1.82202
             532             397         2.19472         1.94833        -1.16738        -1.63198
             533             126         3.08434         2.90726         3.05155         1.67248
             533             215         3.56759         2.58464         3.20388         1.73233
             534             313         3.76394         3.63599         3.14223         3.01059
             534             356         1.69581         4.38438     556.890E-03         3.72753
             535             126         3.08434         2.90726         3.05155         1.67248
             535             218         3.06631         2.65817         3.06631         1.34225
             536             339         3.23252         2.78167         2.02865         2.28598
             536             349         3.10062         3.05985         2.49026         1.97682
             537             228         3.46088         3.46088         2.75974         2.75974
             537             238         3.64444         3.44806         2.52861         3.26320
             538             232         1.73032         1.89672    -821.864E-03        -1.63039
             538             329         1.98241         1.56368    -809.588E-03        -1.56368
             539             507         2.28824         1.96786        -1.25295    -932.577E-03
             539             582         2.25099         2.41779        -1.26020    -693.671E-03
             540             218         3.06631         2.65817         3.06631         1.34225
             540             326         2.03622         3.36726         1.57339         2.12626
             541             342         2.75150         4.31775        -2.14122        -4.01555
             541             437         3.22851         2.64695        -2.91722        -2.06466
             542             219         1.28732         1.08082    -550.882E-03    -969.141E-03
             542             327         1.36673         1.59403    -995.292E-03    -645.637E-03
             543             331         2.17698         1.99405         1.66664     566.929E-03
             543             337         2.55318         1.87806         1.44694     232.862E-03
             544             331         2.17698         1.99405         1.66664     566.929E-03
             544             336         2.37032         1.79452     85.4643E-03     888.421E-03
             545             222         1.47704         1.66591    -802.283E-03        -1.50719
             545             253         1.54322         1.77182    -956.852E-03        -1.18545
             546             222         1.47704         1.66591    -802.283E-03        -1.50719
             546             329         1.98241         1.56368    -809.588E-03        -1.56368
             547             232         1.73032         1.89672    -821.864E-03        -1.63039
             547             329         1.98241         1.56368    -809.588E-03        -1.56368
             548             272         1.85881         2.31683         1.07653    -722.467E-03
             548             377         2.27216         2.36172    -559.434E-03    -469.873E-03
             549             118         2.01846         2.17096         2.01846     601.055E-03
             549             221         2.32981         1.94409         2.32981     586.794E-03
             550             119         1.72456         2.00831         1.01325    -304.817E-03
             550             332         2.28133         2.26813    -139.399E-03    -966.099E-03
             551             119         1.72456         2.00831         1.01325    -304.817E-03
             551             224         2.14971         2.59628    -242.731E-03    -866.870E-03
             552             224         2.14971         2.59628    -242.731E-03    -866.870E-03
             552             332         2.28133         2.26813    -139.399E-03    -966.099E-03
             553             231         3.25360         3.10835        -1.82432        -1.07504
             553             263         3.24822         2.79472        -1.87623        -1.56678
             554             296         1.84343         3.07437         1.39215         1.86848
             554             338         1.99296         2.44856     580.128E-03         1.92975
             555             164     574.151E-03     655.551E-03    -317.060E-03    -398.460E-03
             555             452         1.49394         1.65564    -913.542E-03        -1.07524
             556             269         4.34320         3.26616        -3.82920        -2.75215
             556             444         4.25113         1.32267        -3.76812    -839.653E-03
             557             229         1.91601         1.90070     147.146E-03         1.32240
             557             392         2.34206         1.63853     342.698E-03     829.737E-03
             558             307         3.42995         3.44024        -3.04874        -3.11646
             558             335         3.15810         2.77864        -3.10989        -2.14816
             559             227         2.21125         1.75108     931.237E-03     471.071E-03
             559             353         2.33750         2.01703     174.897E-03    -79.8585E-03
             560             248         2.64852         4.63129         1.98096         3.96373
             560             340         1.67711         4.30461     602.690E-03         3.54150
             561              94         3.52319         1.96495        -2.27763        -5.37650
             561             367         5.07115         3.93701        -3.81479        -2.85603
             562             128         1.54100         2.20912    -811.136E-03        -1.12305
             562             357         2.15855         2.51710        -2.14874    -904.197E-03
             563             442         2.01805         2.24304     829.694E-03         1.05468
             563             483         1.42023         3.10440    -582.247E-03         2.30259
             564             316         3.68505         5.57508        -3.31157        -5.46754
             564             317         4.54178         5.34840        -3.17375        -4.99825
             565             199         3.16077         4.30425        -2.41204        -3.92995
             565             256         4.55217         2.14607        -4.00545        -1.57280
             566             227         2.21125         1.75108     931.237E-03     471.071E-03
             566             272         1.85881         2.31683         1.07653    -722.467E-03
             567             232         1.73032         1.89672    -821.864E-03        -1.63039
             567             347         1.81569         2.02305        -1.15889        -1.31204
             568             418         2.11966         3.18766     706.474E-03         2.70360
             568             441         1.85184         3.19084     313.797E-03         1.69264
             569             458         2.65765         1.95469        -1.15401        -1.17765
             569             503         2.00599         1.84388    -769.554E-03        -1.06174
             570             384         2.82467         3.40208         1.41782         2.88353
             570             413         1.64049         4.87244     2.50138E-03         4.34210
             571             312         4.75562         2.74073        -4.39961        -2.30750
             571             382         4.79029         1.54752        -4.53200        -1.19657
             572             261         1.54126         1.63813    -919.482E-03        -1.01635
             572             287         1.46947         1.39510    -883.890E-03    -748.772E-03
             573             340         1.67711         4.30461     602.690E-03         3.54150
             573             411         1.67339         4.53267     383.206E-03         4.02453
             574             258         1.82929         1.94746        -1.51294        -1.13424
             574             294         1.71026         1.72542        -1.23041        -1.09039
             575             203         3.37561         4.75760        -2.61823        -4.15313
             575             270         3.65920         3.17900        -3.06158        -2.74207
             576             281         3.39350         3.73877         2.29025         3.39399
             576             363         3.60575         2.53699         2.65692         1.86152
             577             368         2.23111         2.79467         1.72111         1.36735
             577             405         3.16101         1.92363         2.17770     990.731E-03
             578             242         3.05121         4.62503        -2.48337        -4.05720
             578             342         2.75150         4.31775        -2.14122        -4.01555
             579             388         1.58162         1.63767    -831.764E-03    -887.817E-03
             579             503         2.00599         1.84388    -769.554E-03        -1.06174
             580             303         3.74060         2.52271         3.31322         1.63630
             580             404         3.67796         1.63336         3.13783     258.378E-03
             581             417         2.08985         2.89157         1.13490         1.93662
             581             460         1.92555         2.59079    -539.571E-03         2.14977
             582             288         3.91413         5.87290        -2.64472        -5.15064
             582             304         3.23820         5.98687        -2.84830        -5.83830
             583             326         2.03622         3.36726         1.57339         2.12626
             583             354         2.47292         2.29160     255.318E-03         2.22629
             584             164     574.151E-03     655.551E-03    -317.060E-03    -398.460E-03
             584             388         1.58162         1.63767    -831.764E-03    -887.817E-03
             585             253         1.54322         1.77182    -956.852E-03        -1.18545
             585             329         1.98241         1.56368    -809.588E-03        -1.56368
             586             271         3.65427         3.29137        -3.31588        -2.37908
             586             309         3.35099         3.56646        -2.57707        -3.03974
             587             225         2.02585         2.34017        -1.24542     240.092E-03
             587             345         2.63008         2.57397        -1.56823    -657.347E-03
             588             444         4.25113         1.32267        -3.76812    -839.653E-03
             588             578         3.03533         1.44272        -2.80443    -715.679E-03
             589             404         3.67796         1.63336         3.13783     258.378E-03
             589             513         2.50869         2.02711         1.98215     518.549E-03
             590             281         3.39350         3.73877         2.29025         3.39399
             590             466         3.03718         3.02074         2.17205         2.26612
             591             328         1.77416         1.36476    -652.759E-03        -1.18419
             591             379         2.00714         1.61627    -911.506E-03        -1.05882
             592             251         3.71175         3.34818        -2.77023        -3.13379
             592             352         2.37158         3.61769        -1.13098        -3.56255
             593             333         3.86947         3.87756        -3.11233        -3.12042
             593             352         2.37158         3.61769        -1.13098        -3.56255
             594             225         2.02585         2.34017        -1.24542     240.092E-03
             594             380         2.47340         1.76955        -1.08491     274.710E-03
             595             502         3.19245         3.48437        -1.98640        -1.74517
             595             607         2.16199         3.32869        -1.15700    -896.204E-03
             596             290         2.41104         1.68744         1.49642     863.617E-03
             596             293         1.90059         2.16881         1.37326     735.747E-03
             597             263         3.24822         2.79472        -1.87623        -1.56678
             597             361         2.36276         3.10361        -1.71576        -1.42353
             598             239         2.04057         2.13820        -1.10517        -1.76282
             598             378         2.46728         2.05805        -2.08833    -738.342E-03
             599             316         3.68505         5.57508        -3.31157        -5.46754
             599             416         2.85527         4.45250        -2.39050        -4.29961
             600             326         2.03622         3.36726         1.57339         2.12626
             600             354         2.47292         2.29160     255.318E-03         2.22629
             601             332         2.28133         2.26813    -139.399E-03    -966.099E-03
             601             422         2.64232         2.57324        -1.65773    -860.778E-03
             602             238         3.64444         3.44806         2.52861         3.26320
             602             370         3.79270         2.16647         2.98578         1.25532
             603             344         2.18032         2.31312        -1.29361        -1.42640
             603             458         2.65765         1.95469        -1.15401        -1.17765
             604             128         1.54100         2.20912    -811.136E-03        -1.12305
             604             268     951.745E-03         1.07433    -951.745E-03    -221.960E-03
             605             371         3.39837         3.84360        -2.69867        -2.80918
             605             439         5.31919         2.16350        -5.31919    -356.565E-03
             606             345         2.63008         2.57397        -1.56823    -657.347E-03
             606             476         2.36829         1.79947    -981.073E-03    -763.391E-03
             607             250         2.54511         2.30790        -1.50587        -1.88445
             607             267         2.81688         2.63757        -1.65801        -2.16891
             608             253         1.54322         1.77182    -956.852E-03        -1.18545
             608             369         1.81624         1.96633        -1.04136        -1.19145
             609             322         3.16348         5.28920        -2.40784        -5.11084
             609             409         4.94262         1.88118        -4.58800        -1.52656
             610             316         3.68505         5.57508        -3.31157        -5.46754
             610             343         4.31402         3.62426        -3.47839        -2.88020
             611             390         1.76626         1.79990        -1.03429    -729.609E-03
             611             457         1.76465         1.73975    -831.572E-03    -581.264E-03
             612             379         2.00714         1.61627    -911.506E-03        -1.05882
             612             470         1.86555         1.94710    -817.680E-03    -899.232E-03
             613             206         4.02748         4.66325        -3.23707        -4.28083
             613             269         4.34320         3.26616        -3.82920        -2.75215
             614             361         2.36276         3.10361        -1.71576        -1.42353
             614             422         2.64232         2.57324        -1.65773    -860.778E-03
             615             131         4.02447         5.17550        -2.40073        -5.17550
             615             371         3.39837         3.84360        -2.69867        -2.80918
             616             353         2.33750         2.01703     174.897E-03    -79.8585E-03
             616             377         2.27216         2.36172    -559.434E-03    -469.873E-03
             617             322         3.16348         5.28920        -2.40784        -5.11084
             617             409         4.94262         1.88118        -4.58800        -1.52656
             618             319         4.53693         2.85725         3.34291         2.15404
             618             384         2.82467         3.40208         1.41782         2.88353
             619             237         3.35341         3.69458         3.00305         2.75898
             619             279         3.32183         3.84484         2.22606         3.60682
             620             276         2.58797         4.64743        -1.90899        -4.42572
             620             362         2.89865         3.19913        -2.52753        -2.84195
             621             417         2.08985         2.89157         1.13490         1.93662
             621             418         2.11966         3.18766     706.474E-03         2.70360
             622             411         1.67339         4.53267     383.206E-03         4.02453
             622             424         1.13668         3.84248    -112.253E-03         2.98568
             623             131         4.02447         5.17550        -2.40073        -5.17550
             623             325         4.16819         3.08183        -2.78389        -2.53717
             624             320         5.23709         1.85079         4.46868         1.02881
             624             375         2.75500         3.09168         1.84552         1.97925
             625             498         2.81707         1.70290        -1.91118    -983.621E-03
             625             534         3.28567         1.11126        -2.75812    -399.797E-03
             626             461         3.92435         1.15978         3.12424    -166.408E-03
             626             467         3.07625         1.95992         2.02901     912.680E-03
             627             399         1.42920         3.42817     332.907E-03         2.43731
             627             402         1.69734         3.29523         1.15037         1.78713
             628             369         1.81624         1.96633        -1.04136        -1.19145
             628             507         2.28824         1.96786        -1.25295    -932.577E-03
             629             289         2.57714         3.40844         2.51340         1.86223
             629             368         2.23111         2.79467         1.72111         1.36735
             630             593         2.70089         1.90832    -321.912E-03    -64.3599E-03
             630             608         2.54599         1.76442    -449.441E-03        -1.04393
             631             381         2.64468         3.28195         1.53392         2.62762
             631             515         3.27235         1.57224         2.61463     491.549E-03
             632             229         1.91601         1.90070     147.146E-03         1.32240
             632             389         2.05583         1.99400    -396.700E-03     691.487E-03
             633             369         1.81624         1.96633        -1.04136        -1.19145
             633             507         2.28824         1.96786        -1.25295    -932.577E-03
             634             286         1.95169         2.52448     697.496E-03         2.14952
             634             394         2.35662         1.55235     477.456E-03         1.51561
             635             295         2.11450         1.80720        -1.43002        -1.25271
             635             396         2.39372         1.82202    -899.014E-03        -1.82202
             636             286         1.95169         2.52448     697.496E-03         2.14952
             636             398         2.56808         1.63110     596.867E-03         1.55833
             637             339         3.23252         2.78167         2.02865         2.28598
             637             381         2.64468         3.28195         1.53392         2.62762
             638             271         3.65427         3.29137        -3.31588        -2.37908
             638             278         3.32058         3.81985        -3.23673        -3.03143
             639             320         5.23709         1.85079         4.46868         1.02881
             639             360         2.96255         2.83876         1.42487         2.19041
             640             116     614.464E-03     420.065E-03    -437.030E-03    -147.013E-03
             640             376         1.60382         1.58609        -1.01046    -678.532E-03
             641             494         3.14650         1.84170         2.50776     46.1827E-03
             641             495         2.68474         2.33469         1.22385         1.05899
             642             434         2.15607         2.51104    -634.043E-03    -279.070E-03
             642             553         1.96580         2.46263    -295.683E-03        -1.29664
             643             450         4.57265         2.84626        -3.96512        -1.82659
             643             496         2.57824         3.61296        -2.14625        -2.94407
             644             269         4.34320         3.26616        -3.82920        -2.75215
             644             314         4.57351         2.87302        -4.18193        -2.21623
             645             345         2.63008         2.57397        -1.56823    -657.347E-03
             645             475         2.83203         2.26365        -1.10724        -1.43939
             646             293         1.90059         2.16881         1.37326     735.747E-03
             646             393         2.21504         1.78474         1.12007     689.772E-03
             647             577         2.29113         2.58236    -168.918E-03     667.029E-03
             647             622         2.07612         2.83109     527.933E-03        -1.24529
             648             237         3.35341         3.69458         3.00305         2.75898
             648             366         2.98356         2.97416         2.24977         1.94505
             649             237         3.35341         3.69458         3.00305         2.75898
             649             381         2.64468         3.28195         1.53392         2.62762
             650             414         4.84864         1.88082        -4.24221        -1.66204
             650             473         3.25399         2.49453        -2.62468        -1.88793
             651             306         3.88380         3.88909         3.34458         2.77964
             651             429         4.01508         2.52517         3.64216         1.02613
             652             513         2.50869         2.02711         1.98215     518.549E-03
             652             572     807.148E-03         3.37936    -315.032E-03         1.62857
             653             279         3.32183         3.84484         2.22606         3.60682
             653             383         3.30396         2.77779         2.43924         2.00045
             654             259         1.05876     936.471E-03    -680.636E-03    -534.195E-03
             654             436         1.96669         1.91928    -958.973E-03    -964.217E-03
             655             315         4.21274         2.83300         3.86728         1.95035
             655             384         2.82467         3.40208         1.41782         2.88353
             656             315         4.21274         2.83300         3.86728         1.95035
             656             375         2.75500         3.09168         1.84552         1.97925
             657             498         2.81707         1.70290        -1.91118    -983.621E-03
             657             595         2.12737         2.70765     702.077E-03        -1.99047
             658             302         3.58070         2.58841         3.45196         1.14787
             658             404         3.67796         1.63336         3.13783     258.378E-03
             659             303         3.74060         2.52271         3.31322         1.63630
             659             386         3.87400         1.99196         3.05832     785.707E-03
             660             228         3.46088         3.46088         2.75974         2.75974
             660             386         3.87400         1.99196         3.05832     785.707E-03
             661             228         3.46088         3.46088         2.75974         2.75974
             661             370         3.79270         2.16647         2.98578         1.25532
             662             371         3.39837         3.84360        -2.69867        -2.80918
             662             453         4.00312         2.95312        -3.49804        -1.37739
             663             519         1.77714         2.16611    -859.380E-03    -805.609E-03
             663             552         2.10291         2.46883    -746.162E-03        -1.33100
             664             298         2.62702         2.76261        -1.34151        -2.41994
             664             391         2.47128         2.59839        -1.65182        -1.55218
             665             454         2.08251         2.43135    -638.312E-03         1.89124
             665             504         2.23378         2.54323    -830.647E-03         1.17781
             666             285         2.36598         1.50530    -420.815E-03     876.104E-03
             666             380         2.47340         1.76955        -1.08491     274.710E-03
             667             285         2.36598         1.50530    -420.815E-03     876.104E-03
             667             389         2.05583         1.99400    -396.700E-03     691.487E-03
             668             392         2.34206         1.63853     342.698E-03     829.737E-03
             668             393         2.21504         1.78474         1.12007     689.772E-03
             669             300         3.27430         2.57214         2.88480         1.26531
             669             368         2.23111         2.79467         1.72111         1.36735
             670             300         3.27430         2.57214         2.88480         1.26531
             670             402         1.69734         3.29523         1.15037         1.78713
             671             284         2.38907         4.93993         1.60352         4.48400
             671             411         1.67339         4.53267     383.206E-03         4.02453
             672             236         2.76986         3.38436        -1.99547        -2.36825
             672             401         3.39275         2.94597        -2.83963        -1.37674
             673             294         1.71026         1.72542        -1.23041        -1.09039
             673             395         1.87854         2.06718        -1.43339    -987.007E-03
             674             290         2.41104         1.68744         1.49642     863.617E-03
             674             393         2.21504         1.78474         1.12007     689.772E-03
             675             290         2.41104         1.68744         1.49642     863.617E-03
             675             394         2.35662         1.55235     477.456E-03         1.51561
             676             479         2.18726         1.97934    -520.192E-03        -1.51042
             676             514         2.10570         1.83308    -694.452E-03    -905.872E-03
             677             317         4.54178         5.34840        -3.17375        -4.99825
             677             343         4.31402         3.62426        -3.47839        -2.88020
             678             378         2.46728         2.05805        -2.08833    -738.342E-03
             678             433         1.86296         2.29642        -1.36617    -766.116E-03
             679             258         1.82929         1.94746        -1.51294        -1.13424
             679             395         1.87854         2.06718        -1.43339    -987.007E-03
             680             387         1.57529         4.71420     450.579E-03         4.07667
             680             435         1.98077         3.08933     871.489E-03         1.98005
             681             370         3.79270         2.16647         2.98578         1.25532
             681             383         3.30396         2.77779         2.43924         2.00045
             682             317         4.54178         5.34840        -3.17375        -4.99825
             682             439         5.31919         2.16350        -5.31919    -356.565E-03
             683             338         1.99296         2.44856     580.128E-03         1.92975
             683             399         1.42920         3.42817     332.907E-03         2.43731
             684             265         3.01821         2.64617         2.62364         1.29047
             684             399         1.42920         3.42817     332.907E-03         2.43731
             685             233         3.80716         3.50838         3.27780         2.73898
             685             403         2.39200         3.59381         1.46917         3.12040
             686             236         2.76986         3.38436        -1.99547        -2.36825
             686             400         3.03686         2.59922        -1.53786        -2.04305
             687             391         2.47128         2.59839        -1.65182        -1.55218
             687             400         3.03686         2.59922        -1.53786        -2.04305
             688             299         3.48641         3.59920        -2.59803        -2.51204
             688             401         3.39275         2.94597        -2.83963        -1.37674
             689             236         2.76986         3.38436        -1.99547        -2.36825
             689             299         3.48641         3.59920        -2.59803        -2.51204
             690             433         1.86296         2.29642        -1.36617    -766.116E-03
             690             451         2.65610         2.04261        -1.63369        -1.06308
             691             453         4.00312         2.95312        -3.49804        -1.37739
             691             492         3.60149         2.66072        -1.79718        -2.11023
             692             458         2.65765         1.95469        -1.15401        -1.17765
             692             537         2.30688         1.73837    -918.725E-03        -1.55200
             693             432         1.77320         1.89316    -748.959E-03    -868.920E-03
             693             436         1.96669         1.91928    -958.973E-03    -964.217E-03
             694             550         2.16719         2.50075    -474.600E-03        -1.30748
             694             553         1.96580         2.46263    -295.683E-03        -1.29664
             695             303         3.74060         2.52271         3.31322         1.63630
             695             386         3.87400         1.99196         3.05832     785.707E-03
             696             603         1.99689         3.23509        -1.10342        -2.62230
             696             609         3.00654         2.01607        -2.29369    -24.7155E-03
             697             247         3.42751         3.31829        -3.14354        -2.87436
             697             335         3.15810         2.77864        -3.10989        -2.14816
             698             390         1.76626         1.79990        -1.03429    -729.609E-03
             698             511         1.99269         1.95522        -1.08705    -512.049E-03
             699             352         2.37158         3.61769        -1.13098        -3.56255
             699             426         2.16723         3.57683        -1.63063        -2.88340
             700             333         3.86947         3.87756        -3.11233        -3.12042
             700             426         2.16723         3.57683        -1.63063        -2.88340
             701             406         3.44490         2.46201        -2.81170        -2.33906
             701             426         2.16723         3.57683        -1.63063        -2.88340
             702             408         3.80602         2.11761         2.73806         1.82469
             702             495         2.68474         2.33469         1.22385         1.05899
             703             374         3.15117         2.05966        -2.20885        -1.11734
             703             419         3.26018         2.69049        -2.24103        -1.67134
             704             306         3.88380         3.88909         3.34458         2.77964
             704             408         3.80602         2.11761         2.73806         1.82469
             705             363         3.60575         2.53699         2.65692         1.86152
             705             408         3.80602         2.11761         2.73806         1.82469
             706             397         2.19472         1.94833        -1.16738        -1.63198
             706             440         2.52887         2.16143    -892.863E-03        -1.61579
             707             406         3.44490         2.46201        -2.81170        -2.33906
             707             485         1.49386         3.42648    -593.837E-03        -3.38201
             708             301         3.35107         3.94820         3.08175         3.30522
             708             403         2.39200         3.59381         1.46917         3.12040
             709             301         3.35107         3.94820         3.08175         3.30522
             709             410         1.24929         4.91046     404.001E-03         4.35919
             710             246         3.44868         3.49654        -2.71230        -3.14244
             710             427         2.56301         3.38547        -2.01199        -2.66749
             711             383         3.30396         2.77779         2.43924         2.00045
             711             462         3.69968         1.35786         3.09485    -16.8300E-03
             712             322         3.16348         5.28920        -2.40784        -5.11084
             712             416         2.85527         4.45250        -2.39050        -4.29961
             713             352         2.37158         3.61769        -1.13098        -3.56255
             713             501         1.05140         3.78658    -64.3808E-03        -3.36971
             714             343         4.31402         3.62426        -3.47839        -2.88020
             714             525         4.15489         2.70298        -4.15489    -470.242E-03
             715             269         4.34320         3.26616        -3.82920        -2.75215
             715             496         2.57824         3.61296        -2.14625        -2.94407
             716             349         3.10062         3.05985         2.49026         1.97682
             716             494         3.14650         1.84170         2.50776     46.1827E-03
             717             275         2.94275         3.73864         2.56692         2.70352
             717             360         2.96255         2.83876         1.42487         2.19041
             718             275         2.94275         3.73864         2.56692         2.70352
             718             415         2.68420         3.21061         1.11483         2.57000
             719             257         1.66413         4.47485     602.091E-03         4.08271
             719             415         2.68420         3.21061         1.11483         2.57000
             720             203         3.37561         4.75760        -2.61823        -4.15313
             720             450         4.57265         2.84626        -3.96512        -1.82659
             721             392         2.34206         1.63853     342.698E-03     829.737E-03
             721             471         2.58332         1.71709     868.604E-03     2.36707E-03
             722             259         1.05876     936.471E-03    -680.636E-03    -534.195E-03
             722             420         1.32733         1.22815    -809.989E-03    -670.040E-03
             723             420         1.32733         1.22815    -809.989E-03    -670.040E-03
             723             432         1.77320         1.89316    -748.959E-03    -868.920E-03
             724             267         2.81688         2.63757        -1.65801        -2.16891
             724             324         3.42856         2.73173        -2.47798        -1.93801
             725             324         3.42856         2.73173        -2.47798        -1.93801
             725             419         3.26018         2.69049        -2.24103        -1.67134
             726             327         1.36673         1.59403    -995.292E-03    -645.637E-03
             726             420         1.32733         1.22815    -809.989E-03    -670.040E-03
             727             354         2.47292         2.29160     255.318E-03         2.22629
             727             421         2.59928         1.92997     795.905E-03         1.22980
             728             230         2.69503         2.18896         2.14657     838.695E-03
             728             421         2.59928         1.92997     795.905E-03         1.22980
             729             230         2.69503         2.18896         2.14657     838.695E-03
             729             337         2.55318         1.87806         1.44694     232.862E-03
             730             352         2.37158         3.61769        -1.13098        -3.56255
             730             568     930.682E-03         4.14890     385.529E-03        -3.83794
             731             306         3.88380         3.88909         3.34458         2.77964
             731             408         3.80602         2.11761         2.73806         1.82469
             732             496         2.57824         3.61296        -2.14625        -2.94407
             732             531         1.83324         3.19730        -1.32601        -2.54295
             733             348         4.38692         4.00718        -3.63617        -2.67911
             733             465         3.06090         4.03771        -2.43816        -2.40505
             734             339         3.23252         2.78167         2.02865         2.28598
             734             349         3.10062         3.05985         2.49026         1.97682
             735             270         3.65920         3.17900        -3.06158        -2.74207
             735             364         4.07722         3.29366        -3.52746        -2.35702
             736             340         1.67711         4.30461     602.690E-03         3.54150
             736             424         1.13668         3.84248    -112.253E-03         2.98568
             737             464         1.14278         3.52603    -140.986E-03         3.37510
             737             522         1.24166         3.75347    -111.630E-03         3.28746
             738             384         2.82467         3.40208         1.41782         2.88353
             738             488         1.64983         3.48106     692.594E-03         1.72631
             739             348         4.38692         4.00718        -3.63617        -2.67911
             739             355         3.94771         3.82345        -2.23118        -3.46062
             740             521         3.29786         3.29481        -2.73795        -2.40367
             740             564         3.86735         2.13079        -2.94477    -894.274E-03
             741             363         3.60575         2.53699         2.65692         1.86152
             741             423         2.52053         2.18477         1.38771         1.78096
             742             164     574.151E-03     655.551E-03    -317.060E-03    -398.460E-03
             742             241     768.676E-03         1.00904    -434.420E-03    -674.786E-03
             743             506         3.69553         2.60242        -2.82307    -890.696E-03
             743             603         1.99689         3.23509        -1.10342        -2.62230
             744             403         2.39200         3.59381         1.46917         3.12040
             744             524         1.75623         2.84981     908.535E-03         2.30482
             745             334         4.25857         2.06234        -3.71403        -1.16100
             745             351         4.00592         2.48155        -3.23715        -1.46547
             746             434         2.15607         2.51104    -634.043E-03    -279.070E-03
             746             459         2.32454         2.03672    -564.716E-03     433.045E-03
             747             508         3.19671         3.20695        -1.94289        -1.79161
             747             525         4.15489         2.70298        -4.15489    -470.242E-03
             748             399         1.42920         3.42817     332.907E-03         2.43731
             748             483         1.42023         3.10440    -582.247E-03         2.30259
             749             391         2.47128         2.59839        -1.65182        -1.55218
             749             400         3.03686         2.59922        -1.53786        -2.04305
             750             391         2.47128         2.59839        -1.65182        -1.55218
             750             449         2.56058         2.43274        -1.97181    -797.766E-03
             751             336         2.37032         1.79452     85.4643E-03     888.421E-03
             751             459         2.32454         2.03672    -564.716E-03     433.045E-03
             752             385         3.22459         3.27685        -2.76733        -2.96069
             752             437         3.22851         2.64695        -2.91722        -2.06466
             753             418         2.11966         3.18766     706.474E-03         2.70360
             753             441         1.85184         3.19084     313.797E-03         1.69264
             754             256         4.55217         2.14607        -4.00545        -1.57280
             754             443         3.11799         3.36407        -2.42498        -2.67106
             755             455         2.48790         2.58465        -2.18959        -2.16307
             755             603         1.99689         3.23509        -1.10342        -2.62230
             756             402         1.69734         3.29523         1.15037         1.78713
             756             442         2.01805         2.24304     829.694E-03         1.05468
             757             270         3.65920         3.17900        -3.06158        -2.74207
             757             445         3.85371         1.98912        -3.10792        -1.53193
             758             399         1.42920         3.42817     332.907E-03         2.43731
             758             480         2.67656         2.16552     97.4594E-03         1.54833
             759             504         2.23378         2.54323    -830.647E-03         1.17781
             759             509         2.30217         2.18162    -544.376E-03     627.032E-03
             760             428         2.34167         2.69164        -1.06720        -1.73844
             760             555         2.64263         2.24920     215.103E-03    -179.580E-03
             761             366         2.98356         2.97416         2.24977         1.94505
             761             381         2.64468         3.28195         1.53392         2.62762
             762             539         2.81967         1.39664     562.433E-03     768.303E-03
             762             554         2.18378         2.11726     353.150E-03    -238.611E-03
             763             337         2.55318         1.87806         1.44694     232.862E-03
             763             421         2.59928         1.92997     795.905E-03         1.22980
             764             417         2.08985         2.89157         1.13490         1.93662
             764             441         1.85184         3.19084     313.797E-03         1.69264
             765             502         3.19245         3.48437        -1.98640        -1.74517
             765             506         3.69553         2.60242        -2.82307    -890.696E-03
             766             454         2.08251         2.43135    -638.312E-03         1.89124
             766             460         1.92555         2.59079    -539.571E-03         2.14977
             767             342         2.75150         4.31775        -2.14122        -4.01555
             767             437         3.22851         2.64695        -2.91722        -2.06466
             768             422         2.64232         2.57324        -1.65773    -860.778E-03
             768             493         2.07338         2.86808    -803.376E-03    -986.572E-03
             769             365         2.31573         5.04107        -1.76843        -4.75050
             769             437         3.22851         2.64695        -2.91722        -2.06466
             770             362         2.89865         3.19913        -2.52753        -2.84195
             770             447         1.95717         2.88427        -1.90999        -2.21072
             771             367         5.07115         3.93701        -3.81479        -2.85603
             771             443         3.11799         3.36407        -2.42498        -2.67106
             772             423         2.52053         2.18477         1.38771         1.78096
             772             466         3.03718         3.02074         2.17205         2.26612
             773             490         3.47902         1.60217        -2.83852        -1.20221
             773             532         2.86079         2.66295        -1.87459    -552.066E-03
             774             338         1.99296         2.44856     580.128E-03         1.92975
             774             481         2.34320         1.37134     388.969E-03     984.075E-03
             775             338         1.99296         2.44856     580.128E-03         1.92975
             775             398         2.56808         1.63110     596.867E-03         1.55833
             776             400         3.03686         2.59922        -1.53786        -2.04305
             776             482         2.87744         2.30959        -1.76159        -1.19374
             777             445         3.85371         1.98912        -3.10792        -1.53193
             777             531         1.83324         3.19730        -1.32601        -2.54295
             778             432         1.77320         1.89316    -748.959E-03    -868.920E-03
             778             519         1.77714         2.16611    -859.380E-03    -805.609E-03
             779             372         5.74405         1.82675        -5.20866    -894.754E-03
             779             444         4.25113         1.32267        -3.76812    -839.653E-03
             780             274         5.03917         2.60922        -4.83582        -2.14776
             780             372         5.74405         1.82675        -5.20866    -894.754E-03
             781             440         2.52887         2.16143    -892.863E-03        -1.61579
             781             446         2.07858         2.46155    -976.645E-03        -1.35962
             782             395         1.87854         2.06718        -1.43339    -987.007E-03
             782             446         2.07858         2.46155    -976.645E-03        -1.35962
             783             407         2.97466         3.12049        -2.16734        -2.43123
             783             428         2.34167         2.69164        -1.06720        -1.73844
             784             365         2.31573         5.04107        -1.76843        -4.75050
             784             456         3.27829         3.92995        -2.22360        -2.87526
             785             552         2.10291         2.46883    -746.162E-03        -1.33100
             785             561         1.81055         2.20807    -664.456E-03        -1.03810
             786             340         1.67711         4.30461     602.690E-03         3.54150
             786             497     918.019E-03         4.01329    -524.532E-03         3.61921
             787             374         3.15117         2.05966        -2.20885        -1.11734
             787             451         2.65610         2.04261        -1.63369        -1.06308
             788             341         3.19557         2.78927        -2.21456        -1.32514
             788             475         2.83203         2.26365        -1.10724        -1.43939
             789             337         2.55318         1.87806         1.44694     232.862E-03
             789             510         2.76019         1.53668    -341.499E-03     894.557E-03
             790             547         2.44630         2.59353        -1.85471    -672.167E-03
             790             610         2.16710         2.77264        -2.02997     205.551E-03
             791             341         3.19557         2.78927        -2.21456        -1.32514
             791             344         2.18032         2.31312        -1.29361        -1.42640
             792             438         1.85667         1.93073    -807.737E-03    -881.792E-03
             792             479         2.18726         1.97934    -520.192E-03        -1.51042
             793             403         2.39200         3.59381         1.46917         3.12040
             793             464         1.14278         3.52603    -140.986E-03         3.37510
             794             334         4.25857         2.06234        -3.71403        -1.16100
             794             523         2.16980         2.89036        -1.35235        -2.02070
             795             354         2.47292         2.29160     255.318E-03         2.22629
             795             454         2.08251         2.43135    -638.312E-03         1.89124
             796             448         1.92602         2.63645     322.249E-03     826.527E-03
             796             454         2.08251         2.43135    -638.312E-03         1.89124
             797             509         2.30217         2.18162    -544.376E-03     627.032E-03
             797             587         2.70459         2.17916     175.710E-03     554.988E-03
             798             439         5.31919         2.16350        -5.31919    -356.565E-03
             798             525         4.15489         2.70298        -4.15489    -470.242E-03
             799             389         2.05583         1.99400    -396.700E-03     691.487E-03
             799             468         2.18284         1.88133     165.898E-03    -114.719E-03
             800             404         3.67796         1.63336         3.13783     258.378E-03
             800             405         3.16101         1.92363         2.17770     990.731E-03
             801             431         2.35523         2.84775        -1.52162        -1.15604
             801             569         2.07532         2.26942        -1.36764        -1.13845
             802             287         1.46947         1.39510    -883.890E-03    -748.772E-03
             802             390         1.76626         1.79990        -1.03429    -729.609E-03
             803             287         1.46947         1.39510    -883.890E-03    -748.772E-03
             803             457         1.76465         1.73975    -831.572E-03    -581.264E-03
             804             380         2.47340         1.76955        -1.08491     274.710E-03
             804             478         2.45356         1.66602        -1.09139     240.935E-03
             805             358         1.65540         1.88307    -915.152E-03    -797.093E-03
             805             379         2.00714         1.61627    -911.506E-03        -1.05882
             806             558         1.76980         1.86483    -350.985E-03        -1.02686
             806             639         1.82182         1.92313     409.657E-03        -1.09925
             807             584         2.67666         1.85884    -538.824E-03     769.331E-03
             807             598         2.45939         1.85803    -251.648E-03    -168.344E-03
             808             469         2.16646         1.95691        -1.11407    -904.524E-03
             808             470         1.86555         1.94710    -817.680E-03    -899.232E-03
             809             468         2.18284         1.88133     165.898E-03    -114.719E-03
             809             471         2.58332         1.71709     868.604E-03     2.36707E-03
             810             374         3.15117         2.05966        -2.20885        -1.11734
             810             463         3.64052         1.81386        -1.92438        -1.29499
             811             487         2.05679         2.94478    -500.364E-03         2.65099
             811             505         3.06208         2.43727     714.647E-03     89.8370E-03
             812             556         2.69486         2.73823        -2.11560     35.0735E-03
             812             591         1.31270         2.65834    -553.751E-03     107.054E-03
             813             422         2.64232         2.57324        -1.65773    -860.778E-03
             813             431         2.35523         2.84775        -1.52162        -1.15604
             814             434         2.15607         2.51104    -634.043E-03    -279.070E-03
             814             493         2.07338         2.86808    -803.376E-03    -986.572E-03
             815             350         3.93916         3.53676        -3.93916        -1.27136
             815             355         3.94771         3.82345        -2.23118        -3.46062
             816             350         3.93916         3.53676        -3.93916        -1.27136
             816             465         3.06090         4.03771        -2.43816        -2.40505
             817             341         3.19557         2.78927        -2.21456        -1.32514
             817             458         2.65765         1.95469        -1.15401        -1.17765
             818             233         3.80716         3.50838         3.27780         2.73898
             818             281         3.39350         3.73877         2.29025         3.39399
             819             233         3.80716         3.50838         3.27780         2.73898
             819             466         3.03718         3.02074         2.17205         2.26612
             820             606         1.47360         2.96505     912.261E-03        -2.38329
             820             613         2.02512         2.53428     21.8800E-03        -1.11977
             821             370         3.79270         2.16647         2.98578         1.25532
             821             467         3.07625         1.95992         2.02901     912.680E-03
             822             370         3.79270         2.16647         2.98578         1.25532
             822             461         3.92435         1.15978         3.12424    -166.408E-03
             823             382         4.79029         1.54752        -4.53200        -1.19657
             823             472         4.60263     888.215E-03        -4.28537    -377.572E-03
             824             395         1.87854         2.06718        -1.43339    -987.007E-03
             824             479         2.18726         1.97934    -520.192E-03        -1.51042
             825             395         1.87854         2.06718        -1.43339    -987.007E-03
             825             446         2.07858         2.46155    -976.645E-03        -1.35962
             826             549         1.47887         2.87139    -326.156E-03        -2.50250
             826             604         2.12133         2.06139    -898.388E-03    -503.980E-03
             827             337         2.55318         1.87806         1.44694     232.862E-03
             827             448         1.92602         2.63645     322.249E-03     826.527E-03
             828             393         2.21504         1.78474         1.12007     689.772E-03
             828             539         2.81967         1.39664     562.433E-03     768.303E-03
             829             368         2.23111         2.79467         1.72111         1.36735
             829             405         3.16101         1.92363         2.17770     990.731E-03
             830             520         2.11083         2.50061    -925.492E-03        -1.09522
             830             550         2.16719         2.50075    -474.600E-03        -1.30748
             831             546         2.79800         2.09337        -1.55027    -845.641E-03
             831             573         2.76010         1.91682    -946.571E-03    -945.470E-03
             832             366         2.98356         2.97416         2.24977         1.94505
             832             515         3.27235         1.57224         2.61463     491.549E-03
             833             535         2.98659         1.76292    -797.897E-03        -1.62656
             833             585         2.50660         1.90487        -1.21154        -1.11857
             834             382         4.79029         1.54752        -4.53200        -1.19657
             834             490         3.47902         1.60217        -2.83852        -1.20221
             835             473         3.25399         2.49453        -2.62468        -1.88793
             835             490         3.47902         1.60217        -2.83852        -1.20221
             836             419         3.26018         2.69049        -2.24103        -1.67134
             836             492         3.60149         2.66072        -1.79718        -2.11023
             837             459         2.32454         2.03672    -564.716E-03     433.045E-03
             837             510         2.76019         1.53668    -341.499E-03     894.557E-03
             838             436         1.96669         1.91928    -958.973E-03    -964.217E-03
             838             552         2.10291         2.46883    -746.162E-03        -1.33100
             839             387         1.57529         4.71420     450.579E-03         4.07667
             839             491         2.26771         2.93263     735.483E-03         1.82295
             840             425         3.26739         1.39185         2.42621     180.511E-03
             840             494         3.14650         1.84170         2.50776     46.1827E-03
             841             359         1.17805         1.32269    -555.771E-03    -818.848E-03
             841             477         1.77375         1.65304    -807.364E-03    -745.829E-03
             842             388         1.58162         1.63767    -831.764E-03    -887.817E-03
             842             477         1.77375         1.65304    -807.364E-03    -745.829E-03
             843             468         2.18284         1.88133     165.898E-03    -114.719E-03
             843             478         2.45356         1.66602        -1.09139     240.935E-03
             844             430         2.63226         3.38781        -1.07883        -2.83469
             844             482         2.87744         2.30959        -1.76159        -1.19374
             845             470         1.86555         1.94710    -817.680E-03    -899.232E-03
             845             519         1.77714         2.16611    -859.380E-03    -805.609E-03
             846             400         3.03686         2.59922        -1.53786        -2.04305
             846             449         2.56058         2.43274        -1.97181    -797.766E-03
             847             338         1.99296         2.44856     580.128E-03         1.92975
             847             480         2.67656         2.16552     97.4594E-03         1.54833
             848             486         3.10561         1.40359         1.95428     961.747E-03
             848             574         2.82946         1.41469         1.59030    -181.765E-03
             849             368         2.23111         2.79467         1.72111         1.36735
             849             484         2.74897         1.45800         1.68799     313.677E-03
             850             494         3.14650         1.84170         2.50776     46.1827E-03
             850             555         2.64263         2.24920     215.103E-03    -179.580E-03
             851             457         1.76465         1.73975    -831.572E-03    -581.264E-03
             851             543         1.93067         2.00381    -731.747E-03    -672.010E-03
             852             499         2.38007         1.85245        -1.12514    -597.512E-03
             852             565         1.90387         1.89401    -963.981E-03    -460.181E-03
             853             575         2.73178         2.03152         2.46073        -1.87649
             853             606         1.47360         2.96505     912.261E-03        -2.38329
             854             405         3.16101         1.92363         2.17770     990.731E-03
             854             484         2.74897         1.45800         1.68799     313.677E-03
             855             447         1.95717         2.88427        -1.90999        -2.21072
             855             485         1.49386         3.42648    -593.837E-03        -3.38201
             856             581         2.14384         1.73343        -1.00368    -332.366E-03
             856             615         1.97752         1.74351    -892.533E-03    -422.520E-03
             857             424         1.13668         3.84248    -112.253E-03         2.98568
             857             522         1.24166         3.75347    -111.630E-03         3.28746
             858             464         1.14278         3.52603    -140.986E-03         3.37510
             858             600         2.03805         1.71882         1.30139     455.412E-03
             859             339         3.23252         2.78167         2.02865         2.28598
             859             381         2.64468         3.28195         1.53392         2.62762
             860             339         3.23252         2.78167         2.02865         2.28598
             860             486         3.10561         1.40359         1.95428     961.747E-03
             861             360         2.96255         2.83876         1.42487         2.19041
             861             487         2.05679         2.94478    -500.364E-03         2.65099
             862             441         1.85184         3.19084     313.797E-03         1.69264
             862             487         2.05679         2.94478    -500.364E-03         2.65099
             863             489         4.22581         2.06146        -3.78565        -1.12842
             863             521         3.29786         3.29481        -2.73795        -2.40367
             864             409         4.94262         1.88118        -4.58800        -1.52656
             864             489         4.22581         2.06146        -3.78565        -1.12842
             865             409         4.94262         1.88118        -4.58800        -1.52656
             865             473         3.25399         2.49453        -2.62468        -1.88793
             866             487         2.05679         2.94478    -500.364E-03         2.65099
             866             533         1.24266         3.36903    -549.165E-03         2.71538
             867             456         3.27829         3.92995        -2.22360        -2.87526
             867             506         3.69553         2.60242        -2.82307    -890.696E-03
             868             412         3.27154         3.23561        -1.81588        -2.73053
             868             419         3.26018         2.69049        -2.24103        -1.67134
             869             413         1.64049         4.87244     2.50138E-03         4.34210
             869             491         2.26771         2.93263     735.483E-03         1.82295
             870             488         1.64983         3.48106     692.594E-03         1.72631
             870             491         2.26771         2.93263     735.483E-03         1.82295
             871             412         3.27154         3.23561        -1.81588        -2.73053
             871             492         3.60149         2.66072        -1.79718        -2.11023
             872             561         1.81055         2.20807    -664.456E-03        -1.03810
             872             565         1.90387         1.89401    -963.981E-03    -460.181E-03
             873             424         1.13668         3.84248    -112.253E-03         2.98568
             873             562         2.15766         2.38842     139.262E-03     891.220E-03
             874             619         1.84813         2.04693     424.518E-03    -762.986E-03
             874             641         3.00946         1.56994    -614.882E-03    -571.110E-03
             875             268     951.745E-03         1.07433    -951.745E-03    -221.960E-03
             875             357         2.15855         2.51710        -2.14874    -904.197E-03
             876             503         2.00599         1.84388    -769.554E-03        -1.06174
             876             579         1.67195         2.34495    -931.834E-03        -1.10843
             877             349         3.10062         3.05985         2.49026         1.97682
             877             429         4.01508         2.52517         3.64216         1.02613
             878             505         3.06208         2.43727     714.647E-03     89.8370E-03
             878             580         2.63716         2.05250     714.335E-03    -295.885E-03
             879             533         1.24266         3.36903    -549.165E-03         2.71538
             879             580         2.63716         2.05250     714.335E-03    -295.885E-03
             880             435         1.98077         3.08933     871.489E-03         1.98005
             880             497     918.019E-03         4.01329    -524.532E-03         3.61921
             881             580         2.63716         2.05250     714.335E-03    -295.885E-03
             881             611         2.97029         2.34087    -902.420E-03    -139.398E-03
             882             375         2.75500         3.09168         1.84552         1.97925
             882             488         1.64983         3.48106     692.594E-03         1.72631
             883             459         2.32454         2.03672    -564.716E-03     433.045E-03
             883             598         2.45939         1.85803    -251.648E-03    -168.344E-03
             884             533         1.24266         3.36903    -549.165E-03         2.71538
             884             580         2.63716         2.05250     714.335E-03    -295.885E-03
             885             376         1.60382         1.58609        -1.01046    -678.532E-03
             885             569         2.07532         2.26942        -1.36764        -1.13845
             886             597         3.27351         2.65280        -2.57370    -488.228E-03
             886             611         2.97029         2.34087    -902.420E-03    -139.398E-03
             887             573         2.76010         1.91682    -946.571E-03    -945.470E-03
             887             608         2.54599         1.76442    -449.441E-03        -1.04393
             888             386         3.87400         1.99196         3.05832     785.707E-03
             888             513         2.50869         2.02711         1.98215     518.549E-03
             889             617         2.30200         2.15389    -779.864E-03    -631.746E-03
             889             629         2.26521         2.57829        -1.35995    -80.6696E-03
             890             343         4.31402         3.62426        -3.47839        -2.88020
             890             521         3.29786         3.29481        -2.73795        -2.40367
             891             543         1.93067         2.00381    -731.747E-03    -672.010E-03
             891             616         1.75751         2.10952    -541.508E-03    -806.940E-03
             892             410         1.24929         4.91046     404.001E-03         4.35919
             892             522         1.24166         3.75347    -111.630E-03         3.28746
             893             433         1.86296         2.29642        -1.36617    -766.116E-03
             893             507         2.28824         1.96786        -1.25295    -932.577E-03
             894             388         1.58162         1.63767    -831.764E-03    -887.817E-03
             894             452         1.49394         1.65564    -913.542E-03        -1.07524
             895             452         1.49394         1.65564    -913.542E-03        -1.07524
             895             503         2.00599         1.84388    -769.554E-03        -1.06174
             896             446         2.07858         2.46155    -976.645E-03        -1.35962
             896             573         2.76010         1.91682    -946.571E-03    -945.470E-03
             897             386         3.87400         1.99196         3.05832     785.707E-03
             897             404         3.67796         1.63336         3.13783     258.378E-03
             898             433         1.86296         2.29642        -1.36617    -766.116E-03
             898             585         2.50660         1.90487        -1.21154        -1.11857
             899             460         1.92555         2.59079    -539.571E-03         2.14977
             899             509         2.30217         2.18162    -544.376E-03     627.032E-03
             900             375         2.75500         3.09168         1.84552         1.97925
             900             533         1.24266         3.36903    -549.165E-03         2.71538
             901             428         2.34167         2.69164        -1.06720        -1.73844
             901             606         1.47360         2.96505     912.261E-03        -2.38329
             902             456         3.27829         3.92995        -2.22360        -2.87526
             902             502         3.19245         3.48437        -1.98640        -1.74517
             903             459         2.32454         2.03672    -564.716E-03     433.045E-03
             903             526         2.55163         1.88745    -167.515E-03    -940.943E-03
             904             511         1.99269         1.95522        -1.08705    -512.049E-03
             904             616         1.75751         2.10952    -541.508E-03    -806.940E-03
             905             435         1.98077         3.08933     871.489E-03         1.98005
             905             589         2.57520         2.16180         1.84079    -733.800E-03
             906             544         2.65915         2.32814        -1.55583        -1.22483
             906             547         2.44630         2.59353        -1.85471    -672.167E-03
             907             508         3.19671         3.20695        -1.94289        -1.79161
             907             517         3.40158         2.14064    -824.888E-03        -2.14064
             908             435         1.98077         3.08933     871.489E-03         1.98005
             908             491         2.26771         2.93263     735.483E-03         1.82295
             909             455         2.48790         2.58465        -2.18959        -2.16307
             909             536         2.26424         2.30434        -1.68677        -1.46897
             910             542         2.21069         2.97310     246.918E-03     96.6032E-03
             910             595         2.12737         2.70765     702.077E-03        -1.99047
             911             481         2.34320         1.37134     388.969E-03     984.075E-03
             911             539         2.81967         1.39664     562.433E-03     768.303E-03
             912             455         2.48790         2.58465        -2.18959        -2.16307
             912             536         2.26424         2.30434        -1.68677        -1.46897
             913             512         3.12498         1.37018         1.47648    -126.044E-03
             913             557         2.52021         1.94576    -768.159E-03     364.410E-03
             914             461         3.92435         1.15978         3.12424    -166.408E-03
             914             528         2.64854         1.74853         1.44467    -98.4942E-03
             915             425         3.26739         1.39185         2.42621     180.511E-03
             915             486         3.10561         1.40359         1.95428     961.747E-03
             916             357         2.15855         2.51710        -2.14874    -904.197E-03
             916             431         2.35523         2.84775        -1.52162        -1.15604
             917             478         2.45356         1.66602        -1.09139     240.935E-03
             917             516         1.98184         1.95745        -1.33617    -430.600E-03
             918             478         2.45356         1.66602        -1.09139     240.935E-03
             918             538         2.55579         1.66464        -1.17885     216.823E-03
             919             545         2.05372         1.68709     153.407E-03     842.322E-03
             919             572     807.148E-03         3.37936    -315.032E-03         1.62857
             920             476         2.36829         1.79947    -981.073E-03    -763.391E-03
             920             516         1.98184         1.95745        -1.33617    -430.600E-03
             921             463         3.64052         1.81386        -1.92438        -1.29499
             921             492         3.60149         2.66072        -1.79718        -2.11023
             922             492         3.60149         2.66072        -1.79718        -2.11023
             922             517         3.40158         2.14064    -824.888E-03        -2.14064
             923             446         2.07858         2.46155    -976.645E-03        -1.35962
             923             540         2.56454         2.13708    -918.855E-03        -1.11097
             924             536         2.26424         2.30434        -1.68677        -1.46897
             924             549         1.47887         2.87139    -326.156E-03        -2.50250
             925             568     930.682E-03         4.14890     385.529E-03        -3.83794
             925             613         2.02512         2.53428     21.8800E-03        -1.11977
             926             604         2.12133         2.06139    -898.388E-03    -503.980E-03
             926             613         2.02512         2.53428     21.8800E-03        -1.11977
             927             465         3.06090         4.03771        -2.43816        -2.40505
             927             502         3.19245         3.48437        -1.98640        -1.74517
             928             376         1.60382         1.58609        -1.01046    -678.532E-03
             928             520         2.11083         2.50061    -925.492E-03        -1.09522
             929             523         2.16980         2.89036        -1.35235        -2.02070
             929             563         2.35723         2.87327        -1.57937        -2.24243
             930             576         2.47701         2.12224        -1.22283    -868.061E-03
             930             614         2.60561         1.95016    -850.523E-03    -558.469E-03
             931             334         4.25857         2.06234        -3.71403        -1.16100
             931             428         2.34167         2.69164        -1.06720        -1.73844
             932             444         4.25113         1.32267        -3.76812    -839.653E-03
             932             496         2.57824         3.61296        -2.14625        -2.94407
             933             444         4.25113         1.32267        -3.76812    -839.653E-03
             933             534         3.28567         1.11126        -2.75812    -399.797E-03
             934             609         3.00654         2.01607        -2.29369    -24.7155E-03
             934             624         2.27714         2.65154    -366.317E-03    -20.5090E-03
             935             343         4.31402         3.62426        -3.47839        -2.88020
             935             521         3.29786         3.29481        -2.73795        -2.40367
             936             583         2.08440         2.32786         1.05948     400.369E-03
             936             624         2.27714         2.65154    -366.317E-03    -20.5090E-03
             937             470         1.86555         1.94710    -817.680E-03    -899.232E-03
             937             565         1.90387         1.89401    -963.981E-03    -460.181E-03
             938             497     918.019E-03         4.01329    -524.532E-03         3.61921
             938             562         2.15766         2.38842     139.262E-03     891.220E-03
             939             488         1.64983         3.48106     692.594E-03         1.72631
             939             542         2.21069         2.97310     246.918E-03     96.6032E-03
             940             364         4.07722         3.29366        -3.52746        -2.35702
             940             586         3.33873         2.16495        -2.75175        -1.32002
             941             433         1.86296         2.29642        -1.36617    -766.116E-03
             941             451         2.65610         2.04261        -1.63369        -1.06308
             942             436         1.96669         1.91928    -958.973E-03    -964.217E-03
             942             520         2.11083         2.50061    -925.492E-03        -1.09522
             943             475         2.83203         2.26365        -1.10724        -1.43939
             943             537         2.30688         1.73837    -918.725E-03        -1.55200
             944             518         2.01770         1.75690         1.14899    -325.602E-03
             944             560         1.34850         3.28253    -589.552E-03     41.6504E-03
             945             461         3.92435         1.15978         3.12424    -166.408E-03
             945             462         3.69968         1.35786         3.09485    -16.8300E-03
             946             485         1.49386         3.42648    -593.837E-03        -3.38201
             946             500         1.80695         2.81907        -1.29753        -1.59674
             947             546         2.79800         2.09337        -1.55027    -845.641E-03
             947             547         2.44630         2.59353        -1.85471    -672.167E-03
             948             443         3.11799         3.36407        -2.42498        -2.67106
             948             563         2.35723         2.87327        -1.57937        -2.24243
             949             488         1.64983         3.48106     692.594E-03         1.72631
             949             491         2.26771         2.93263     735.483E-03         1.82295
             950             483         1.42023         3.10440    -582.247E-03         2.30259
             950             529         1.48693         3.03819    -159.187E-03     791.655E-03
             951             518         2.01770         1.75690         1.14899    -325.602E-03
             951             529         1.48693         3.03819    -159.187E-03     791.655E-03
             952             576         2.47701         2.12224        -1.22283    -868.061E-03
             952             629         2.26521         2.57829        -1.35995    -80.6696E-03
             953             557         2.52021         1.94576    -768.159E-03     364.410E-03
             953             620         2.25880         2.08938     987.254E-03        -1.03629
             954             516         1.98184         1.95745        -1.33617    -430.600E-03
             954             537         2.30688         1.73837    -918.725E-03        -1.55200
             955             469         2.16646         1.95691        -1.11407    -904.524E-03
             955             507         2.28824         1.96786        -1.25295    -932.577E-03
             956             451         2.65610         2.04261        -1.63369        -1.06308
             956             463         3.64052         1.81386        -1.92438        -1.29499
             957             463         3.64052         1.81386        -1.92438        -1.29499
             957             535         2.98659         1.76292    -797.897E-03        -1.62656
             958             495         2.68474         2.33469         1.22385         1.05899
             958             555         2.64263         2.24920     215.103E-03    -179.580E-03
             959             428         2.34167         2.69164        -1.06720        -1.73844
             959             567         2.56556         2.22023    -791.225E-03    -21.1284E-03
             960             608         2.54599         1.76442    -449.441E-03        -1.04393
             960             621         2.28425         2.10927    -297.817E-03    -974.090E-03
             961             540         2.56454         2.13708    -918.855E-03        -1.11097
             961             621         2.28425         2.10927    -297.817E-03    -974.090E-03
             962             516         1.98184         1.95745        -1.33617    -430.600E-03
             962             537         2.30688         1.73837    -918.725E-03        -1.55200
             963             527         2.04531         2.26074    -114.869E-03    -222.420E-03
             963             538         2.55579         1.66464        -1.17885     216.823E-03
             964             393         2.21504         1.78474         1.12007     689.772E-03
             964             394         2.35662         1.55235     477.456E-03         1.51561
             965             394         2.35662         1.55235     477.456E-03         1.51561
             965             398         2.56808         1.63110     596.867E-03         1.55833
             966             398         2.56808         1.63110     596.867E-03         1.55833
             966             539         2.81967         1.39664     562.433E-03     768.303E-03
             967             552         2.10291         2.46883    -746.162E-03        -1.33100
             967             553         1.96580         2.46263    -295.683E-03        -1.29664
             968             446         2.07858         2.46155    -976.645E-03        -1.35962
             968             540         2.56454         2.13708    -918.855E-03        -1.11097
             969             514         2.10570         1.83308    -694.452E-03    -905.872E-03
             969             540         2.56454         2.13708    -918.855E-03        -1.11097
             970             474         2.61166         1.59500         1.57344     410.306E-03
             970             484         2.74897         1.45800         1.68799     313.677E-03
             971             484         2.74897         1.45800         1.68799     313.677E-03
             971             545         2.05372         1.68709     153.407E-03     842.322E-03
             972             506         3.69553         2.60242        -2.82307    -890.696E-03
             972             556         2.69486         2.73823        -2.11560     35.0735E-03
             973             457         1.76465         1.73975    -831.572E-03    -581.264E-03
             973             477         1.77375         1.65304    -807.364E-03    -745.829E-03
             974             477         1.77375         1.65304    -807.364E-03    -745.829E-03
             974             543         1.93067         2.00381    -731.747E-03    -672.010E-03
             975             449         2.56058         2.43274        -1.97181    -797.766E-03
             975             546         2.79800         2.09337        -1.55027    -845.641E-03
             976             485         1.49386         3.42648    -593.837E-03        -3.38201
             976             549         1.47887         2.87139    -326.156E-03        -2.50250
             977             480         2.67656         2.16552     97.4594E-03         1.54833
             977             541         2.93894         1.65948    -106.835E-03         1.09935
             978             449         2.56058         2.43274        -1.97181    -797.766E-03
             978             547         2.44630         2.59353        -1.85471    -672.167E-03
             979             544         2.65915         2.32814        -1.55583        -1.22483
             979             547         2.44630         2.59353        -1.85471    -672.167E-03
             980             440         2.52887         2.16143    -892.863E-03        -1.61579
             980             449         2.56058         2.43274        -1.97181    -797.766E-03
             981             567         2.56556         2.22023    -791.225E-03    -21.1284E-03
             981             623         1.37047         2.85702    -156.567E-03        -1.93791
             982             480         2.67656         2.16552     97.4594E-03         1.54833
             982             548         2.11975         2.86196        -1.11936         1.60561
             983             529         1.48693         3.03819    -159.187E-03     791.655E-03
             983             548         2.11975         2.86196        -1.11936         1.60561
             984             542         2.21069         2.97310     246.918E-03     96.6032E-03
             984             589         2.57520         2.16180         1.84079    -733.800E-03
             985             425         3.26739         1.39185         2.42621     180.511E-03
             985             575         2.73178         2.03152         2.46073        -1.87649
             986             431         2.35523         2.84775        -1.52162        -1.15604
             986             493         2.07338         2.86808    -803.376E-03    -986.572E-03
             987             431         2.35523         2.84775        -1.52162        -1.15604
             987             550         2.16719         2.50075    -474.600E-03        -1.30748
             988             470         1.86555         1.94710    -817.680E-03    -899.232E-03
             988             499         2.38007         1.85245        -1.12514    -597.512E-03
             989             473         3.25399         2.49453        -2.62468        -1.88793
             989             551         2.49250         3.10886        -1.09660        -2.07209
             990             473         3.25399         2.49453        -2.62468        -1.88793
             990             532         2.86079         2.66295        -1.87459    -552.066E-03
             991             555         2.64263         2.24920     215.103E-03    -179.580E-03
             991             606         1.47360         2.96505     912.261E-03        -2.38329
             992             434         2.15607         2.51104    -634.043E-03    -279.070E-03
             992             493         2.07338         2.86808    -803.376E-03    -986.572E-03
             993             493         2.07338         2.86808    -803.376E-03    -986.572E-03
             993             553         1.96580         2.46263    -295.683E-03        -1.29664
             994             471         2.58332         1.71709     868.604E-03     2.36707E-03
             994             554         2.18378         2.11726     353.150E-03    -238.611E-03
             995             471         2.58332         1.71709     868.604E-03     2.36707E-03
             995             539         2.81967         1.39664     562.433E-03     768.303E-03
             996             512         3.12498         1.37018         1.47648    -126.044E-03
             996             624         2.27714         2.65154    -366.317E-03    -20.5090E-03
             997             627         1.97165         2.00654    -987.457E-03    -349.899E-03
             997             637         2.48018         1.69615    -441.997E-03    -88.3324E-03
             998             594         2.79397         2.12172    -646.980E-03    -866.202E-03
             998             608         2.54599         1.76442    -449.441E-03        -1.04393
             999             526         2.55163         1.88745    -167.515E-03    -940.943E-03
             999             553         1.96580         2.46263    -295.683E-03        -1.29664
            1000             581         2.14384         1.73343        -1.00368    -332.366E-03
            1000             615         1.97752         1.74351    -892.533E-03    -422.520E-03
            1001             511         1.99269         1.95522        -1.08705    -512.049E-03
            1001             615         1.97752         1.74351    -892.533E-03    -422.520E-03
            1002             549         1.47887         2.87139    -326.156E-03        -2.50250
            1002             599         1.90163         2.37999    -467.391E-03        -1.21284
            1003             486         3.10561         1.40359         1.95428     961.747E-03
            1003             515         3.27235         1.57224         2.61463     491.549E-03
            1004             578         3.03533         1.44272        -2.80443    -715.679E-03
            1004             640         2.67037         1.45827        -2.20092     550.987E-03
            1005             465         3.06090         4.03771        -2.43816        -2.40505
            1005             559         2.97235         3.35240    -442.637E-03        -2.66346
            1006             544         2.65915         2.32814        -1.55583        -1.22483
            1006             559         2.97235         3.35240    -442.637E-03        -2.66346
            1007             643         1.59636         2.51948        -1.00134        -1.56700
            1007             645         1.39599         2.29029     723.474E-03        -1.89202
            1008             538         2.55579         1.66464        -1.17885     216.823E-03
            1008             581         2.14384         1.73343        -1.00368    -332.366E-03
            1009             526         2.55163         1.88745    -167.515E-03    -940.943E-03
            1009             627         1.97165         2.00654    -987.457E-03    -349.899E-03
            1010             438         1.85667         1.93073    -807.737E-03    -881.792E-03
            1010             571         1.82812         1.50746        -1.10455    -382.194E-03
            1011             438         1.85667         1.93073    -807.737E-03    -881.792E-03
            1011             511         1.99269         1.95522        -1.08705    -512.049E-03
            1012             570         2.21904         2.18648    -530.649E-03    -627.768E-03
            1012             595         2.12737         2.70765     702.077E-03        -1.99047
            1013             500         1.80695         2.81907        -1.29753        -1.59674
            1013             568     930.682E-03         4.14890     385.529E-03        -3.83794
            1014             489         4.22581         2.06146        -3.78565        -1.12842
            1014             521         3.29786         3.29481        -2.73795        -2.40367
            1015             489         4.22581         2.06146        -3.78565        -1.12842
            1015             564         3.86735         2.13079        -2.94477    -894.274E-03
            1016             615         1.97752         1.74351    -892.533E-03    -422.520E-03
            1016             642         2.03475         1.55280    -904.154E-03    -353.554E-03
            1017             509         2.30217         2.18162    -544.376E-03     627.032E-03
            1017             566         2.40322         2.08793    -961.802E-03     352.102E-03
            1018             451         2.65610         2.04261        -1.63369        -1.06308
            1018             585         2.50660         1.90487        -1.21154        -1.11857
            1019             581         2.14384         1.73343        -1.00368    -332.366E-03
            1019             616         1.75751         2.10952    -541.508E-03    -806.940E-03
            1020             599         1.90163         2.37999    -467.391E-03        -1.21284
            1020             609         3.00654         2.01607        -2.29369    -24.7155E-03
            1021             512         3.12498         1.37018         1.47648    -126.044E-03
            1021             583         2.08440         2.32786         1.05948     400.369E-03
            1022             433         1.86296         2.29642        -1.36617    -766.116E-03
            1022             576         2.47701         2.12224        -1.22283    -868.061E-03
            1023             268     951.745E-03         1.07433    -951.745E-03    -221.960E-03
            1023             569         2.07532         2.26942        -1.36764        -1.13845
            1024             534         3.28567         1.11126        -2.75812    -399.797E-03
            1024             570         2.21904         2.18648    -530.649E-03    -627.768E-03
            1025             503         2.00599         1.84388    -769.554E-03        -1.06174
            1025             543         1.93067         2.00381    -731.747E-03    -672.010E-03
            1026             604         2.12133         2.06139    -898.388E-03    -503.980E-03
            1026             620         2.25880         2.08938     987.254E-03        -1.03629
            1027             527         2.04531         2.26074    -114.869E-03    -222.420E-03
            1027             554         2.18378         2.11726     353.150E-03    -238.611E-03
            1028             428         2.34167         2.69164        -1.06720        -1.73844
            1028             555         2.64263         2.24920     215.103E-03    -179.580E-03
            1029             587         2.70459         2.17916     175.710E-03     554.988E-03
            1029             619         1.84813         2.04693     424.518E-03    -762.986E-03
            1030             607         2.16199         3.32869        -1.15700    -896.204E-03
            1030             610         2.16710         2.77264        -2.02997     205.551E-03
            1031             545         2.05372         1.68709     153.407E-03     842.322E-03
            1031             591         1.31270         2.65834    -553.751E-03     107.054E-03
            1032             560         1.34850         3.28253    -589.552E-03     41.6504E-03
            1032             591         1.31270         2.65834    -553.751E-03     107.054E-03
            1033             517         3.40158         2.14064    -824.888E-03        -2.14064
            1033             602         3.10908         1.82494    -823.615E-03        -1.46933
            1034             517         3.40158         2.14064    -824.888E-03        -2.14064
            1034             535         2.98659         1.76292    -797.897E-03        -1.62656
            1035             593         2.70089         1.90832    -321.912E-03    -64.3599E-03
            1035             621         2.28425         2.10927    -297.817E-03    -974.090E-03
            1036             462         3.69968         1.35786         3.09485    -16.8300E-03
            1036             515         3.27235         1.57224         2.61463     491.549E-03
            1037             614         2.60561         1.95016    -850.523E-03    -558.469E-03
            1037             641         3.00946         1.56994    -614.882E-03    -571.110E-03
            1038             364         4.07722         3.29366        -3.52746        -2.35702
            1038             445         3.85371         1.98912        -3.10792        -1.53193
            1039             531         1.83324         3.19730        -1.32601        -2.54295
            1039             586         3.33873         2.16495        -2.75175        -1.32002
            1040             488         1.64983         3.48106     692.594E-03         1.72631
            1040             577         2.29113         2.58236    -168.918E-03     667.029E-03
            1041             441         1.85184         3.19084     313.797E-03         1.69264
            1041             505         3.06208         2.43727     714.647E-03     89.8370E-03
            1042             525         4.15489         2.70298        -4.15489    -470.242E-03
            1042             597         3.27351         2.65280        -2.57370    -488.228E-03
            1043             588         3.25553         2.36340    -944.115E-03        -1.43140
            1043             597         3.27351         2.65280        -2.57370    -488.228E-03
            1044             633         1.71270         2.61421        -1.50532         2.23041
            1044             640         2.67037         1.45827        -2.20092     550.987E-03
            1045             469         2.16646         1.95691        -1.11407    -904.524E-03
            1045             582         2.25099         2.41779        -1.26020    -693.671E-03
            1046             564         3.86735         2.13079        -2.94477    -894.274E-03
            1046             634         2.64887         2.60206        -1.04298        -1.15499
            1047             556         2.69486         2.73823        -2.11560     35.0735E-03
            1047             609         3.00654         2.01607        -2.29369    -24.7155E-03
            1048             516         1.98184         1.95745        -1.33617    -430.600E-03
            1048             579         1.67195         2.34495    -931.834E-03        -1.10843
            1049             516         1.98184         1.95745        -1.33617    -430.600E-03
            1049             581         2.14384         1.73343        -1.00368    -332.366E-03
            1050             572     807.148E-03         3.37936    -315.032E-03         1.62857
            1050             583         2.08440         2.32786         1.05948     400.369E-03
            1051             467         3.07625         1.95992         2.02901     912.680E-03
            1051             583         2.08440         2.32786         1.05948     400.369E-03
            1052             467         3.07625         1.95992         2.02901     912.680E-03
            1052             512         3.12498         1.37018         1.47648    -126.044E-03
            1053             565         1.90387         1.89401    -963.981E-03    -460.181E-03
            1053             631         2.24628         1.72390    -785.459E-03    -559.123E-03
            1054             504         2.23378         2.54323    -830.647E-03         1.17781
            1054             584         2.67666         1.85884    -538.824E-03     769.331E-03
            1055             510         2.76019         1.53668    -341.499E-03     894.557E-03
            1055             584         2.67666         1.85884    -538.824E-03     769.331E-03
            1056             590         2.55033         2.53126    -669.831E-03     323.453E-03
            1056             594         2.79397         2.12172    -646.980E-03    -866.202E-03
            1057             443         3.11799         3.36407        -2.42498        -2.67106
            1057             563         2.35723         2.87327        -1.57937        -2.24243
            1058             564         3.86735         2.13079        -2.94477    -894.274E-03
            1058             597         3.27351         2.65280        -2.57370    -488.228E-03
            1059             531         1.83324         3.19730        -1.32601        -2.54295
            1059             618         2.37067         1.61310        -1.63257    -569.285E-03
            1060             576         2.47701         2.12224        -1.22283    -868.061E-03
            1060             585         2.50660         1.90487        -1.21154        -1.11857
            1061             501         1.05140         3.78658    -64.3808E-03        -3.36971
            1061             606         1.47360         2.96505     912.261E-03        -2.38329
            1062             525         4.15489         2.70298        -4.15489    -470.242E-03
            1062             564         3.86735         2.13079        -2.94477    -894.274E-03
            1063             459         2.32454         2.03672    -564.716E-03     433.045E-03
            1063             526         2.55163         1.88745    -167.515E-03    -940.943E-03
            1064             567         2.56556         2.22023    -791.225E-03    -21.1284E-03
            1064             638         1.74569         2.10582     242.087E-03    -803.745E-03
            1065             491         2.26771         2.93263     735.483E-03         1.82295
            1065             589         2.57520         2.16180         1.84079    -733.800E-03
            1066             505         3.06208         2.43727     714.647E-03     89.8370E-03
            1066             580         2.63716         2.05250     714.335E-03    -295.885E-03
            1067             548         2.11975         2.86196        -1.11936         1.60561
            1067             590         2.55033         2.53126    -669.831E-03     323.453E-03
            1068             560         1.34850         3.28253    -589.552E-03     41.6504E-03
            1068             590         2.55033         2.53126    -669.831E-03     323.453E-03
            1069             532         2.86079         2.66295        -1.87459    -552.066E-03
            1069             595         2.12737         2.70765     702.077E-03        -1.99047
            1070             538         2.55579         1.66464        -1.17885     216.823E-03
            1070             592         2.07558         1.97095    -740.027E-03    -458.194E-03
            1071             570         2.21904         2.18648    -530.649E-03    -627.768E-03
            1071             633         1.71270         2.61421        -1.50532         2.23041
            1072             541         2.93894         1.65948    -106.835E-03         1.09935
            1072             593         2.70089         1.90832    -321.912E-03    -64.3599E-03
            1073             590         2.55033         2.53126    -669.831E-03     323.453E-03
            1073             593         2.70089         1.90832    -321.912E-03    -64.3599E-03
            1074             506         3.69553         2.60242        -2.82307    -890.696E-03
            1074             609         3.00654         2.01607        -2.29369    -24.7155E-03
            1075             590         2.55033         2.53126    -669.831E-03     323.453E-03
            1075             593         2.70089         1.90832    -321.912E-03    -64.3599E-03
            1076             562         2.15766         2.38842     139.262E-03     891.220E-03
            1076             595         2.12737         2.70765     702.077E-03        -1.99047
            1077             562         2.15766         2.38842     139.262E-03     891.220E-03
            1077             589         2.57520         2.16180         1.84079    -733.800E-03
            1078             597         3.27351         2.65280        -2.57370    -488.228E-03
            1078             634         2.64887         2.60206        -1.04298        -1.15499
            1079             622         2.07612         2.83109     527.933E-03        -1.24529
            1079             634         2.64887         2.60206        -1.04298        -1.15499
            1080             464         1.14278         3.52603    -140.986E-03         3.37510
            1080             601         1.83881         2.09591    -6.42217E-03         1.39060
            1081             495         2.68474         2.33469         1.22385         1.05899
            1081             596         2.49350         1.68649         1.72383    -654.985E-03
            1082             423         2.52053         2.18477         1.38771         1.78096
            1082             495         2.68474         2.33469         1.22385         1.05899
            1083             542         2.21069         2.97310     246.918E-03     96.6032E-03
            1083             605         2.81576         2.56957    -715.348E-03    -587.064E-03
            1084             526         2.55163         1.88745    -167.515E-03    -940.943E-03
            1084             627         1.97165         2.00654    -987.457E-03    -349.899E-03
            1085             527         2.04531         2.26074    -114.869E-03    -222.420E-03
            1085             625         1.93460         2.25749     139.134E-03    -859.849E-03
            1086             509         2.30217         2.18162    -544.376E-03     627.032E-03
            1086             619         1.84813         2.04693     424.518E-03    -762.986E-03
            1087             423         2.52053         2.18477         1.38771         1.78096
            1087             600         2.03805         1.71882         1.30139     455.412E-03
            1088             423         2.52053         2.18477         1.38771         1.78096
            1088             524         1.75623         2.84981     908.535E-03         2.30482
            1089             524         1.75623         2.84981     908.535E-03         2.30482
            1089             600         2.03805         1.71882         1.30139     455.412E-03
            1090             625         1.93460         2.25749     139.134E-03    -859.849E-03
            1090             642         2.03475         1.55280    -904.154E-03    -353.554E-03
            1091             592         2.07558         1.97095    -740.027E-03    -458.194E-03
            1091             625         1.93460         2.25749     139.134E-03    -859.849E-03
            1092             617         2.30200         2.15389    -779.864E-03    -631.746E-03
            1092             637         2.48018         1.69615    -441.997E-03    -88.3324E-03
            1093             640         2.67037         1.45827        -2.20092     550.987E-03
            1093             644         1.95083         1.87076    -733.151E-03     395.453E-03
            1094             549         1.47887         2.87139    -326.156E-03        -2.50250
            1094             599         1.90163         2.37999    -467.391E-03        -1.21284
            1095             572     807.148E-03         3.37936    -315.032E-03         1.62857
            1095             612         2.03896         2.55984    -259.003E-03     262.763E-03
            1096             532         2.86079         2.66295        -1.87459    -552.066E-03
            1096             551         2.49250         3.10886        -1.09660        -2.07209
            1097             532         2.86079         2.66295        -1.87459    -552.066E-03
            1097             605         2.81576         2.56957    -715.348E-03    -587.064E-03
            1098             591         1.31270         2.65834    -553.751E-03     107.054E-03
            1098             607         2.16199         3.32869        -1.15700    -896.204E-03
            1099             556         2.69486         2.73823        -2.11560     35.0735E-03
            1099             607         2.16199         3.32869        -1.15700    -896.204E-03
            1100             502         3.19245         3.48437        -1.98640        -1.74517
            1100             556         2.69486         2.73823        -2.11560     35.0735E-03
            1101             577         2.29113         2.58236    -168.918E-03     667.029E-03
            1101             580         2.63716         2.05250     714.335E-03    -295.885E-03
            1102             600         2.03805         1.71882         1.30139     455.412E-03
            1102             635         1.86461         1.74302     704.893E-03    -359.764E-03
            1103             530         2.77679         1.52082         1.63169    -585.232E-03
            1103             575         2.73178         2.03152         2.46073        -1.87649
            1104             599         1.90163         2.37999    -467.391E-03        -1.21284
            1104             609         3.00654         2.01607        -2.29369    -24.7155E-03
            1105             590         2.55033         2.53126    -669.831E-03     323.453E-03
            1105             610         2.16710         2.77264        -2.02997     205.551E-03
            1106             559         2.97235         3.35240    -442.637E-03        -2.66346
            1106             610         2.16710         2.77264        -2.02997     205.551E-03
            1107             544         2.65915         2.32814        -1.55583        -1.22483
            1107             559         2.97235         3.35240    -442.637E-03        -2.66346
            1108             563         2.35723         2.87327        -1.57937        -2.24243
            1108             623         1.37047         2.85702    -156.567E-03        -1.93791
            1109             563         2.35723         2.87327        -1.57937        -2.24243
            1109             623         1.37047         2.85702    -156.567E-03        -1.93791
            1110             574         2.82946         1.41469         1.59030    -181.765E-03
            1110             620         2.25880         2.08938     987.254E-03        -1.03629
            1111             545         2.05372         1.68709     153.407E-03     842.322E-03
            1111             591         1.31270         2.65834    -553.751E-03     107.054E-03
            1112             545         2.05372         1.68709     153.407E-03     842.322E-03
            1112             612         2.03896         2.55984    -259.003E-03     262.763E-03
            1113             535         2.98659         1.76292    -797.897E-03        -1.62656
            1113             614         2.60561         1.95016    -850.523E-03    -558.469E-03
            1114             617         2.30200         2.15389    -779.864E-03    -631.746E-03
            1114             631         2.24628         1.72390    -785.459E-03    -559.123E-03
            1115             629         2.26521         2.57829        -1.35995    -80.6696E-03
            1115             630         2.42676         2.01147    -791.197E-03     365.356E-03
            1116             582         2.25099         2.41779        -1.26020    -693.671E-03
            1116             617         2.30200         2.15389    -779.864E-03    -631.746E-03
            1117             511         1.99269         1.95522        -1.08705    -512.049E-03
            1117             543         1.93067         2.00381    -731.747E-03    -672.010E-03
            1118             504         2.23378         2.54323    -830.647E-03         1.17781
            1118             566         2.40322         2.08793    -961.802E-03     352.102E-03
            1119             504         2.23378         2.54323    -830.647E-03         1.17781
            1119             630         2.42676         2.01147    -791.197E-03     365.356E-03
            1120             567         2.56556         2.22023    -791.225E-03    -21.1284E-03
            1120             596         2.49350         1.68649         1.72383    -654.985E-03
            1121             587         2.70459         2.17916     175.710E-03     554.988E-03
            1121             628         3.04523         1.96257     446.688E-03        -1.27686
            1122             593         2.70089         1.90832    -321.912E-03    -64.3599E-03
            1122             632         2.41571         1.68481     266.815E-03    -464.089E-03
            1123             620         2.25880         2.08938     987.254E-03        -1.03629
            1123             636         2.26480         1.94685    -118.594E-03     80.3459E-03
            1124             509         2.30217         2.18162    -544.376E-03     627.032E-03
            1124             566         2.40322         2.08793    -961.802E-03     352.102E-03
            1125             528         2.64854         1.74853         1.44467    -98.4942E-03
            1125             574         2.82946         1.41469         1.59030    -181.765E-03
            1126             540         2.56454         2.13708    -918.855E-03        -1.11097
            1126             558         1.76980         1.86483    -350.985E-03        -1.02686
            1127             586         3.33873         2.16495        -2.75175        -1.32002
            1127             643         1.59636         2.51948        -1.00134        -1.56700
            1128             424         1.13668         3.84248    -112.253E-03         2.98568
            1128             633         1.71270         2.61421        -1.50532         2.23041
            1129             601         1.83881         2.09591    -6.42217E-03         1.39060
            1129             635         1.86461         1.74302     704.893E-03    -359.764E-03
            1130             625         1.93460         2.25749     139.134E-03    -859.849E-03
            1130             639         1.82182         1.92313     409.657E-03        -1.09925
            1131             601         1.83881         2.09591    -6.42217E-03         1.39060
            1131             635         1.86461         1.74302     704.893E-03    -359.764E-03
            1132             530         2.77679         1.52082         1.63169    -585.232E-03
            1132             636         2.26480         1.94685    -118.594E-03     80.3459E-03
            1133             601         1.83881         2.09591    -6.42217E-03         1.39060
            1133             644         1.95083         1.87076    -733.151E-03     395.453E-03
            1134             556         2.69486         2.73823        -2.11560     35.0735E-03
            1134             624         2.27714         2.65154    -366.317E-03    -20.5090E-03
            1135             522         1.24166         3.75347    -111.630E-03         3.28746
            1135             633         1.71270         2.61421        -1.50532         2.23041
            1136             522         1.24166         3.75347    -111.630E-03         3.28746
            1136             601         1.83881         2.09591    -6.42217E-03         1.39060
            1137             558         1.76980         1.86483    -350.985E-03        -1.02686
            1137             626         2.12919         1.61316    -657.495E-03    -713.553E-03
            1138             571         1.82812         1.50746        -1.10455    -382.194E-03
            1138             626         2.12919         1.61316    -657.495E-03    -713.553E-03
            1139             565         1.90387         1.89401    -963.981E-03    -460.181E-03
            1139             627         1.97165         2.00654    -987.457E-03    -349.899E-03
            1140             588         3.25553         2.36340    -944.115E-03        -1.43140
            1140             602         3.10908         1.82494    -823.615E-03        -1.46933
            1141             588         3.25553         2.36340    -944.115E-03        -1.43140
            1141             628         3.04523         1.96257     446.688E-03        -1.27686
            1142             611         2.97029         2.34087    -902.420E-03    -139.398E-03
            1142             628         3.04523         1.96257     446.688E-03        -1.27686
            1143             566         2.40322         2.08793    -961.802E-03     352.102E-03
            1143             614         2.60561         1.95016    -850.523E-03    -558.469E-03
            1144             635         1.86461         1.74302     704.893E-03    -359.764E-03
            1144             638         1.74569         2.10582     242.087E-03    -803.745E-03
            1145             570         2.21904         2.18648    -530.649E-03    -627.768E-03
            1145             640         2.67037         1.45827        -2.20092     550.987E-03
            1146             578         3.03533         1.44272        -2.80443    -715.679E-03
            1146             618         2.37067         1.61310        -1.63257    -569.285E-03
            1147             566         2.40322         2.08793    -961.802E-03     352.102E-03
            1147             629         2.26521         2.57829        -1.35995    -80.6696E-03
            1148             499         2.38007         1.85245        -1.12514    -597.512E-03
            1148             631         2.24628         1.72390    -785.459E-03    -559.123E-03
            1149             541         2.93894         1.65948    -106.835E-03         1.09935
            1149             554         2.18378         2.11726     353.150E-03    -238.611E-03
            1150             541         2.93894         1.65948    -106.835E-03         1.09935
            1150             632         2.41571         1.68481     266.815E-03    -464.089E-03
            1151             602         3.10908         1.82494    -823.615E-03        -1.46933
            1151             641         3.00946         1.56994    -614.882E-03    -571.110E-03
            1152             530         2.77679         1.52082         1.63169    -585.232E-03
            1152             574         2.82946         1.41469         1.59030    -181.765E-03
            1153             605         2.81576         2.56957    -715.348E-03    -587.064E-03
            1153             634         2.64887         2.60206        -1.04298        -1.15499
            1154             605         2.81576         2.56957    -715.348E-03    -587.064E-03
            1154             622         2.07612         2.83109     527.933E-03        -1.24529
            1155             635         1.86461         1.74302     704.893E-03    -359.764E-03
            1155             645         1.39599         2.29029     723.474E-03        -1.89202
            1156             602         3.10908         1.82494    -823.615E-03        -1.46933
            1156             614         2.60561         1.95016    -850.523E-03    -558.469E-03
            1157             604         2.12133         2.06139    -898.388E-03    -503.980E-03
            1157             636         2.26480         1.94685    -118.594E-03     80.3459E-03
            1158             630         2.42676         2.01147    -791.197E-03     365.356E-03
            1158             637         2.48018         1.69615    -441.997E-03    -88.3324E-03
            1159             598         2.45939         1.85803    -251.648E-03    -168.344E-03
            1159             637         2.48018         1.69615    -441.997E-03    -88.3324E-03
            1160             627         1.97165         2.00654    -987.457E-03    -349.899E-03
            1160             631         2.24628         1.72390    -785.459E-03    -559.123E-03
            1161             554         2.18378         2.11726     353.150E-03    -238.611E-03
            1161             639         1.82182         1.92313     409.657E-03        -1.09925
            1162             554         2.18378         2.11726     353.150E-03    -238.611E-03
            1162             632         2.41571         1.68481     266.815E-03    -464.089E-03
            1163             621         2.28425         2.10927    -297.817E-03    -974.090E-03
            1163             632         2.41571         1.68481     266.815E-03    -464.089E-03
            1164             621         2.28425         2.10927    -297.817E-03    -974.090E-03
            1164             639         1.82182         1.92313     409.657E-03        -1.09925
            1165             623         1.37047         2.85702    -156.567E-03        -1.93791
            1165             645         1.39599         2.29029     723.474E-03        -1.89202
            1166             635         1.86461         1.74302     704.893E-03    -359.764E-03
            1166             644         1.95083         1.87076    -733.151E-03     395.453E-03
            1167             619         1.84813         2.04693     424.518E-03    -762.986E-03
            1167             641         3.00946         1.56994    -614.882E-03    -571.110E-03
            1168             571         1.82812         1.50746        -1.10455    -382.194E-03
            1168             642         2.03475         1.55280    -904.154E-03    -353.554E-03
            1169             571         1.82812         1.50746        -1.10455    -382.194E-03
            1169             615         1.97752         1.74351    -892.533E-03    -422.520E-03
            1170             531         1.83324         3.19730        -1.32601        -2.54295
            1170             643         1.59636         2.51948        -1.00134        -1.56700
            1171             531         1.83324         3.19730        -1.32601        -2.54295
            1171             586         3.33873         2.16495        -2.75175        -1.32002
            1172             618         2.37067         1.61310        -1.63257    -569.285E-03
            1172             644         1.95083         1.87076    -733.151E-03     395.453E-03
            1173             618         2.37067         1.61310        -1.63257    -569.285E-03
            1173             644         1.95083         1.87076    -733.151E-03     395.453E-03
            1174             618         2.37067         1.61310        -1.63257    -569.285E-03
            1174             645         1.39599         2.29029     723.474E-03        -1.89202
            1175              81         3.75777         5.56955        -1.44178        -7.66351
            1175             150         4.06182         5.38087        -3.34976        -4.66881
            1176             129         3.10568         3.12068         2.44456         2.60923
            1176             215         3.56759         2.58464         3.20388         1.73233
            1177              96         2.85941         6.00723        -2.28852        -5.65853
            1177             203         3.37561         4.75760        -2.61823        -4.15313
            1178               4     117.269E-03     125.803E-03     31.1071E-03     2.52583E-03
            1178             116     614.464E-03     420.065E-03    -437.030E-03    -147.013E-03
            1179              14         2.59940         1.77999         2.59940     473.738E-03
            1179             216         2.21288         1.54474         1.63938     216.861E-03
            1180             246         3.44868         3.49654        -2.71230        -3.14244
            1180             334         4.25857         2.06234        -3.71403        -1.16100
            1181             111         1.18429         1.61126    -866.842E-03        -1.29381
            1181             222         1.47704         1.66591    -802.283E-03        -1.50719
            1182             123         5.80026         13.4339         3.97509         2.96149
            1182             142         4.77210         13.4339         4.15436         3.47379
            1183             136         4.51683         3.49669         3.88906         2.77870
            1183             248         2.64852         4.63129         1.98096         3.96373
            1184              32     798.005E-03         3.52988         5.18661         2.85198
            1184             136         4.51683         3.49669         3.88906         2.77870
            1185             227         2.21125         1.75108     931.237E-03     471.071E-03
            1185             331         2.17698         1.99405         1.66664     566.929E-03
            1186              70     855.958E-03     717.941E-03    -363.297E-03    -717.561E-03
            1186             167         1.26694         1.03655    -766.808E-03    -782.558E-03
            1187             176         4.38978         4.10803         3.61659         3.53956
            1187             190         5.09108         3.45548         4.81521         2.50862
            1188               4     117.269E-03     125.803E-03     31.1071E-03     2.52583E-03
            1188             114     456.161E-03     338.491E-03    -259.274E-03    -48.4762E-03
            1189             117         2.54845         1.97342    -113.189E-03    -963.910E-03
            1189             163         2.01873     834.560E-03        -4.29519        -2.23703
            1190             177         4.72931         4.78697        -3.12371        -4.30586
            1190             249         3.31938         4.71322        -2.19129        -3.63509
            1191             161         6.17456         4.92477        -3.63587        -2.68666
            1191             244         2.69261         3.29244        -2.05320        -1.21129
            1192              13         1.97816         1.82737         1.97816     318.610E-03
            1192             119         1.72456         2.00831         1.01325    -304.817E-03
            1193             150         4.06182         5.38087        -3.34976        -4.66881
            1193             242         3.05121         4.62503        -2.48337        -4.05720
            1194             120         1.87246         2.42537        -1.07775        -2.24644
            1194             217         2.05869         2.82363    -961.397E-03        -2.82363
            1195              29         5.77985         3.31576         5.15782         2.63273
            1195             139         3.91688         4.22494         3.36021         3.31232
            1196              51         5.31089         3.04601         4.67021         2.51275
            1196             149         3.28962         4.47831         2.46386         4.21215
            1197              17         3.47818         2.02928         3.47818     956.545E-03
            1197             134         2.94069         1.80316         2.94069     471.535E-03
            1198              17         3.47818         2.02928         3.47818     956.545E-03
            1198             124         2.61903         2.74352         2.61903         1.37984
            1199              30         5.95287         3.03612         5.66787         2.06232
            1199             207         5.03514         3.24410         4.73451         2.23669
            1200             124         2.61903         2.74352         2.61903         1.37984
            1200             218         3.06631         2.65817         3.06631         1.34225
            1201              18         3.49582         2.55265         3.49582         1.47715
            1201             124         2.61903         2.74352         2.61903         1.37984
            1202             106         1.94455         3.30323        -1.47403        -2.83271
            1202             217         2.05869         2.82363    -961.397E-03        -2.82363
            1203              20         4.00819         2.75127         3.94261         1.77409
            1203             126         3.08434         2.90726         3.05155         1.67248
            1204             108         1.56837         2.48058        -1.21052        -2.12272
            1204             120         1.87246         2.42537        -1.07775        -2.24644
            1205              91         2.96862         5.50082        -2.30238        -5.29513
            1205             143         2.65293         5.05822        -1.87484        -4.86396
            1206              40     738.825E-03         3.99774         5.57767         3.22526
            1206             123     738.825E-03         3.10267         3.97509         2.96149
            1207             210         4.99270     382.049E-03        -2.91489        -9.64356
            1207             316         3.68505         5.57508        -3.31157        -5.46754
            1208             262         3.36720         2.56244        -1.32308        -1.89031
            1208             361         2.36276         3.10361        -1.71576        -1.42353
            1209              85         2.79965         5.64743        -2.26806        -5.35303
            1209             185         3.59593         3.96302        -3.27213        -3.50213
            1210             160         1.01196     851.311E-03    -425.553E-03    -764.696E-03
            1210             359         1.17805         1.32269    -555.771E-03    -818.848E-03
            1211              46         1.08599         3.11931         5.82376         2.29290
            1211             190         5.09108         3.45548         4.81521         2.50862
            1212              46         2.64791         3.11931         5.82376         2.29290
            1212             146         4.86936         3.09033         4.21936         2.41610
            1213             191         3.36584         3.68249        -2.64904        -3.21297
            1213             193         3.45603         3.74670        -3.03645        -3.15007
            1214              59         4.18061         1.71633         3.12422         1.71633
            1214             153         3.49527         2.15035         2.57763         1.76091
            1215             153         3.49527         2.15035         2.57763         1.76091
            1215             154         2.16014         2.98015         1.65032         2.22554
            1216              75         1.92096         2.46173        -1.14241        -2.46173
            1216             174         2.17191         2.55707        -1.43996        -2.21440
            1217              69     554.580E-03     387.568E-03    -114.004E-03    -275.479E-03
            1217             160         1.01196     851.311E-03    -425.553E-03    -764.696E-03
            1218              48         5.77490         3.10237         4.96963         2.74816
            1218             187         3.99480         3.80199         3.40104         3.00993
            1219              53         5.13397         2.72461         4.33093         2.36446
            1219             151         3.49463         3.37421         2.71509         2.78697
            1220              30         5.95287         3.03612         5.66787         2.06232
            1220             201         5.42820         2.54280         5.12072         1.54187
            1221             383         3.30396         2.77779         2.43924         2.00045
            1221             462         3.69968         1.35786         3.09485    -16.8300E-03
            1222             136         4.51683         3.49669         3.88906         2.77870
            1222             188         4.27333         4.19846         3.88367         3.34819
            1223             348         4.38692         4.00718        -3.63617        -2.67911
            1223             355         3.94771         3.82345        -2.23118        -3.46062
            1224             145         4.34634         4.04704         3.71657         3.62322
            1224             176         4.38978         4.10803         3.61659         3.53956
            1225             127         2.31680         3.11600        -2.08155        -2.08703
            1225             214         3.21756         3.10948        -2.20736        -2.65561
            1226             223         1.42703         1.31322    -880.463E-03        -1.05782
            1226             253         1.54322         1.77182    -956.852E-03        -1.18545
            1227              75         1.92096         2.46173        -1.14241        -2.46173
            1227             173         1.90091         2.15796        -1.22718        -1.85233
            1228             178         4.04469         2.93994         3.74202         1.92992
            1228             179         3.68538         3.37495         3.19529         2.65668
            1229              65         1.71494         1.78155     576.225E-03     642.839E-03
            1229             117         2.54845         1.97342    -113.189E-03    -963.910E-03
            1230              71         1.01950         1.18075    -756.817E-03    -918.075E-03
            1230             121         1.36883         1.41426    -757.643E-03        -1.28292
            1231              15         2.72597         2.00722         2.72597     833.717E-03
            1231             118         2.01846         2.17096         2.01846     601.055E-03
            1232              80         8.20573         3.13468        -5.35263        -3.13468
            1232             177         4.72931         4.78697        -3.12371        -4.30586
            1233              60         3.81309         1.54085         2.79346         1.54085
            1233             154         2.16014         2.98015         1.65032         2.22554
            1234              83         2.93955         5.46595        -1.88864        -5.46595
            1234             122         3.26442         4.38306        -2.85753        -3.97616
            1235               6         10.8435         9.23717        -10.8435        -7.35340
            1235             163         12.8095         15.5523        -4.29519        -2.23703
            1236              74         1.73545         2.14125    -999.247E-03        -2.14125
            1236             159         1.81991         1.85097        -1.48779        -1.29647
            1237              85         2.79965         5.64743        -2.26806        -5.35303
            1237             147         3.78983         4.11137        -3.49867        -3.57948
            1238             213         6.64949         5.24810        -3.75221        -2.80649
            1238             231         3.25360         3.10835        -1.82432        -1.07504
            1239             122         3.26442         4.38306        -2.85753        -3.97616
            1239             182         2.33665         5.83501        -1.49519        -5.51900
            1240             128         1.54100         2.20912    -811.136E-03        -1.12305
            1240             262         3.36720         2.56244        -1.32308        -1.89031
            1241             239         2.04057         2.13820        -1.10517        -1.76282
            1241             250         2.54511         2.30790        -1.50587        -1.88445
            1242             271         3.65427         3.29137        -3.31588        -2.37908
            1242             278         3.32058         3.81985        -3.23673        -3.03143
            1243             121         1.36883         1.41426    -757.643E-03        -1.28292
            1243             167         1.26694         1.03655    -766.808E-03    -782.558E-03
            1244             235         3.51916         4.37874         3.03159         3.48939
            1244             429         4.01508         2.52517         3.64216         1.02613
            1245             109         1.42776         2.21255        -1.07980        -1.86458
            1245             125         1.60512         2.13753    -871.127E-03        -1.96355
            1246              39         1.81897         3.24385         5.68249         2.25965
            1246             123         1.81897         1.11543         3.97509         2.96149
            1247             304         3.23820         5.98687        -2.84830        -5.83830
            1247             365         2.31573         5.04107        -1.76843        -4.75050
            1248              45         1.00426         3.50673         5.35078         2.96452
            1248             176         4.38978         4.10803         3.61659         3.53956
            1249             144         4.45706         5.34898         3.94550         4.06648
            1249             195         4.70837         4.30612         3.75097         3.81736
            1250              52         5.33311         2.59705         4.95612         1.80162
            1250             151         3.49463         3.37421         2.71509         2.78697
            1251              84         2.69784         5.60768        -2.19309        -5.23731
            1251             185         3.59593         3.96302        -3.27213        -3.50213
            1252             133         3.57455         3.86618         3.06141         3.07296
            1252             320         5.23709         1.85079         4.46868         1.02881
            1253             247         3.42751         3.31829        -3.14354        -2.87436
            1253             254         4.25447         3.11484        -3.87909        -2.75551
            1254             145         4.34634         4.04704         3.71657         3.62322
            1254             195         4.70837         4.30612         3.75097         3.81736
            1255             101         3.34247         3.00612        -1.76716        -6.31666
            1255             209         2.69626         6.74407        -1.55253        -6.38800
            1256              99         3.00860         6.12845        -2.55114        -5.77225
            1256             135         3.71634         4.85798        -3.09119        -4.67988
            1257             141         3.44478         3.94417        -2.82982        -3.68495
            1257             143         2.65293         5.05822        -1.87484        -4.86396
            1258             118         2.01846         2.17096         2.01846     601.055E-03
            1258             216         2.21288         1.54474         1.63938     216.861E-03
            1259             100         3.36099     175.123E-03        -2.17306        -6.08278
            1259             135         3.71634         4.85798        -3.09119        -4.67988
            1260              16         3.14881         1.82193         3.14881     762.300E-03
            1260             134         2.94069         1.80316         2.94069     471.535E-03
            1261             280         2.71509         4.65915         2.05726         4.00132
            1261             305         3.27484         4.10393         2.45830         3.07935
            1262             150         4.06182         5.38087        -3.34976        -4.66881
            1262             242         3.05121         4.62503        -2.48337        -4.05720
            1263             282         4.12832         2.97463         3.80342         1.73486
            1263             308         5.03613         2.24231         4.23849         1.64394
            1264              70     855.958E-03     717.941E-03    -363.297E-03    -717.561E-03
            1264             160         1.01196     851.311E-03    -425.553E-03    -764.696E-03
            1265             100         3.36099         2.76611        -2.17306        -6.08278
            1265             137         2.77646         6.04181        -1.60522        -6.04181
            1266             198         3.87506         3.95097        -3.47091        -3.43691
            1266             314         4.57351         2.87302        -4.18193        -2.21623
            1267             157         3.76822         3.77635        -3.42631        -2.35631
            1267             172         2.59303         3.77045        -1.16766        -3.77045
            1268             296         1.84343         3.07437         1.39215         1.86848
            1268             338         1.99296         2.44856     580.128E-03         1.92975
            1269             144         4.45706         1.71071         3.94550         4.06648
            1269             306         3.88380         3.88909         3.34458         2.77964
            1270              21         4.52613         2.45743         4.43481         1.47468
            1270             215         3.56759         2.58464         3.20388         1.73233
            1271             127         2.31680         3.11600        -2.08155        -2.08703
            1271             214         3.21756         3.10948        -2.20736        -2.65561
            1272             246         3.44868         3.49654        -2.71230        -3.14244
            1272             256         4.55217         2.14607        -4.00545        -1.57280
            1273              10         2.38325         2.23423        -2.38325     611.060E-03
            1273             128         1.54100         2.20912    -811.136E-03        -1.12305
            1274               6         10.8435         9.23717        -10.8435        -7.35340
            1274             161         14.1341         4.92477        -3.63587        -2.68666
            1275             117         2.54845         1.97342    -113.189E-03    -963.910E-03
            1275             225         2.02585         2.34017        -1.24542     240.092E-03
            1276               3     112.803E-03     85.2705E-03    -8.45183E-03     26.3317E-03
            1276             164     574.151E-03     655.551E-03    -317.060E-03    -398.460E-03
            1277             128         1.54100         2.20912    -811.136E-03        -1.12305
            1277             220     509.233E-03         5.31184        -3.99174        -2.27663
            1278             134         2.94069         1.80316         2.94069     471.535E-03
            1278             330         3.03367         1.22239         2.24328     297.735E-03
            1279              64         2.28991         1.33691         1.59483     641.831E-03
            1279             168         1.92267         1.55051     47.7722E-03     683.195E-03
            1280              64         2.28991         1.33691         1.59483     641.831E-03
            1280             169         1.88515         1.72030         1.00786     843.010E-03
            1281              12         1.67404         1.99540     992.860E-03     184.898E-03
            1281             119         1.72456         2.00831         1.01325    -304.817E-03
            1282              34         2.68270         3.08026         5.76184         2.23380
            1282             148         4.86670         2.99427         4.00703         2.54266
            1283             466         3.03718         3.02074         2.17205         2.26612
            1283             524         1.75623         2.84981     908.535E-03         2.30482
            1284              14         2.59940         1.77999         2.59940     473.738E-03
            1284             118         2.01846         2.17096         2.01846     601.055E-03
            1285             206         4.02748         4.66325        -3.23707        -4.28083
            1285             269         4.34320         3.26616        -3.82920        -2.75215
            1286             274         5.03917         2.60922        -4.83582        -2.14776
            1286             312         4.75562         2.74073        -4.39961        -2.30750
            1287             227         2.21125         1.75108     931.237E-03     471.071E-03
            1287             331         2.17698         1.99405         1.66664     566.929E-03
            1288             125         1.60512         2.13753    -871.127E-03        -1.96355
            1288             232         1.73032         1.89672    -821.864E-03        -1.63039
            1289              21         4.52613         2.45743         4.43481         1.47468
            1289             129         3.10568         3.12068         2.44456         2.60923
            1290             113     870.618E-03     716.580E-03    -355.840E-03    -646.024E-03
            1290             115     960.316E-03     937.200E-03    -747.875E-03    -459.563E-03
            1291             121         1.36883         1.41426    -757.643E-03        -1.28292
            1291             261         1.54126         1.63813    -919.482E-03        -1.01635
            1292             184         4.27480         3.96985         3.96870         3.37787
            1292             200         4.06653         4.08530         3.41498         3.41975
            1293             131         4.02447         5.17550        -2.40073        -5.17550
            1293             214         3.21756         3.10948        -2.20736        -2.65561
            1294             106         1.94455         3.30323        -1.47403        -2.83271
            1294             127         2.31680         3.11600        -2.08155        -2.08703
            1295               5         10.7935         9.33930        -10.7935        -7.45143
            1295             213         15.6187         5.24810        -3.75221        -2.80649
            1296              66         2.28753         2.93649        -1.84025     824.277E-03
            1296             117         2.54845         1.97342    -113.189E-03    -963.910E-03
            1297              67         2.73706         1.84051    -967.301E-03    -837.612E-03
            1297             161         2.65464         4.92477        -3.63587        -2.68666
            1298             120         1.87246         2.42537        -1.07775        -2.24644
            1298             239         2.04057         2.13820        -1.10517        -1.76282
            1299              26         5.78575         3.05258         5.59364         2.06915
            1299             208         5.17310         2.60688         4.86367         1.58055
            1300             178         4.04469         2.93994         3.74202         1.92992
            1300             179         3.68538         3.37495         3.19529         2.65668
            1301              57         4.91347         2.07777         3.81240         2.07777
            1301             155         3.98328         2.52963         3.04325         2.08986
            1302             129         3.10568         3.12068         2.44456         2.60923
            1302             273         2.36185         3.32644         1.70459         2.60344
            1303             107         1.98818         2.62521        -1.17402        -2.62521
            1303             120         1.87246         2.42537        -1.07775        -2.24644
            1304             240         3.37937         2.93381        -1.59969        -1.46613
            1304             245         3.29600         3.07526        -2.64435    -981.872E-03
            1305               2     154.348E-03     130.754E-03     23.3589E-03    -30.0503E-03
            1305             241     768.676E-03         1.00904    -434.420E-03    -674.786E-03
            1306             108         1.56837         2.48058        -1.21052        -2.12272
            1306             125         1.60512         2.13753    -871.127E-03        -1.96355
            1307             109         1.42776         2.21255        -1.07980        -1.86458
            1307             132         1.43049         2.00828    -996.715E-03        -1.57451
            1308             280         2.71509         4.65915         2.05726         4.00132
            1308             381         2.64468         3.28195         1.53392         2.62762
            1309              44     827.232E-03         3.55643         5.20564         2.91909
            1309             145         4.34634         4.04704         3.71657         3.62322
            1310             145         4.34634         4.04704         3.71657         3.62322
            1310             195         4.70837         4.30612         3.75097         3.81736
            1311             176         4.38978         4.10803         3.61659         3.53956
            1311             190         5.09108         3.45548         4.81521         2.50862
            1312              47         5.78996         3.11830         5.02728         2.69073
            1312             146         4.86936         3.09033         4.21936         2.41610
            1313               7         17.7262         10.7791        -12.6580        -12.8912
            1313             180         17.7262         8.58768        -3.85662        -8.58405
            1314             143         2.65293         5.05822        -1.87484        -4.86396
            1314             197         3.01067         4.73247        -2.14154        -4.59562
            1315             271         3.65427         3.29137        -3.31588        -2.37908
            1315             351         4.00592         2.48155        -3.23715        -1.46547
            1316             200         4.06653         4.08530         3.41498         3.41975
            1316             233         3.80716         3.50838         3.27780         2.73898
            1317              92         2.89720         5.43964        -2.19287        -5.22952
            1317             141         3.44478         3.94417        -2.82982        -3.68495
            1318             228         3.46088         3.46088         2.75974         2.75974
            1318             238         3.64444         3.44806         2.52861         3.26320
            1319             105         2.44263         3.53452        -1.32998        -3.53452
            1319             127         2.31680         3.11600        -2.08155        -2.08703
            1320             362         2.89865         3.19913        -2.52753        -2.84195
            1320             455         2.48790         2.58465        -2.18959        -2.16307
            1321             103         4.22808         6.13874        -1.34968        -7.35598
            1321             131         4.02447         5.17550        -2.40073        -5.17550
            1322             126         3.08434         2.90726         3.05155         1.67248
            1322             215         3.56759         2.58464         3.20388         1.73233
            1323              22         4.32910         2.84267         4.12336         1.97756
            1323             129         3.10568         3.12068         2.44456         2.60923
            1324               5         10.7935         9.33930        -10.7935        -7.45143
            1324             220         10.6078         5.31184        -3.99174        -2.27663
            1325             219         1.28732         1.08082    -550.882E-03    -969.141E-03
            1325             223         1.42703         1.31322    -880.463E-03        -1.05782
            1326              23         4.57452         3.07541         4.35252         2.18115
            1326             130         2.36656         4.26235         2.25556         3.17051
            1327             129         3.10568         3.12068         2.44456         2.60923
            1327             130         2.36656         4.26235         2.25556         3.17051
            1328              98         3.18843         6.26700        -2.68508        -6.05836
            1328             202         4.01220         4.28572        -3.72002        -3.78605
            1329             205         2.79424         8.62078        -4.58052        -8.09081
            1329             209         2.69626         6.74407        -1.55253        -6.38800
            1330              25         5.26593         3.39079         4.93262         2.57539
            1330             133         3.57455         3.86618         3.06141         3.07296
            1331             161         1.23966         4.92477        -3.63587        -2.68666
            1331             245         3.29600         3.07526        -2.64435    -981.872E-03
            1332             311         2.89122         4.39508         2.19586         3.40875
            1332             387         1.57529         4.71420     450.579E-03         4.07667
            1333             202         4.01220         4.28572        -3.72002        -3.78605
            1333             206         4.02748         4.66325        -3.23707        -4.28083
            1334              27         5.73393         3.01359         5.50055         1.98499
            1334             208         5.17310         2.60688         4.86367         1.58055
            1335             138         4.39477         3.40267         4.01522         2.30072
            1335             139         3.91688         4.22494         3.36021         3.31232
            1336             133         3.57455         3.86618         3.06141         3.07296
            1336             212         3.31201         3.67981         3.19625         2.64164
            1337             122         3.26442         4.38306        -2.85753        -3.97616
            1337             307         3.42995         3.44024        -3.04874        -3.11646
            1338             101         3.34247     283.410E-03        -1.76716        -6.31666
            1338             137         2.77646         6.04181        -1.60522        -6.04181
            1339              28         5.61399         3.36208         5.07217         2.56900
            1339             138         4.39477         3.40267         4.01522         2.30072
            1340              94         3.52319         5.90160        -2.27763        -5.37650
            1340             140         3.10786         5.10634        -2.65861        -4.26156
            1341              41         1.23685         3.63037         5.96131         3.32408
            1341             142         4.77210         2.39220         4.15436         3.47379
            1342             494         3.14650         1.84170         2.50776     46.1827E-03
            1342             495         2.68474         2.33469         1.22385         1.05899
            1343             235         3.51916         4.37874         3.03159         3.48939
            1343             283         4.19749         3.99177         3.26857         3.15670
            1344             198         3.87506         3.95097        -3.47091        -3.43691
            1344             203         3.37561         4.75760        -2.61823        -4.15313
            1345              38         5.88116         3.10395         5.62072         2.14539
            1345             192         4.62832         3.24155         4.08399         2.39760
            1346              31         5.82917         3.07776         5.57683         2.11297
            1346             136         4.51683         3.49669         3.88906         2.77870
            1347              34     970.110E-03         3.08026         5.76184         2.23380
            1347             204         5.11838         3.29734         4.55790         2.66655
            1348             184         4.27480         3.96985         3.96870         3.37787
            1348             233         3.80716         3.50838         3.27780         2.73898
            1349             184         4.27480         3.96985         3.96870         3.37787
            1349             196         4.03194         3.79187         3.55031         3.04255
            1350              42         1.53467         2.84821         5.37294         2.79198
            1350             144         4.45706         1.25585         3.94550         4.06648
            1351             142         4.77210         14.1584         4.15436         3.47379
            1351             144         4.45706         14.1584         3.94550         4.06648
            1352             262         3.36720         2.56244        -1.32308        -1.89031
            1352             263         3.24822         2.79472        -1.87623        -1.56678
            1353             153         3.49527         2.15035         2.57763         1.76091
            1353             296         1.84343         3.07437         1.39215         1.86848
            1354              36         5.66427         3.12757         4.98792         2.67568
            1354             196         4.03194         3.79187         3.55031         3.04255
            1355             347         1.81569         2.02305        -1.15889        -1.31204
            1355             369         1.81624         1.96633        -1.04136        -1.19145
            1356             133         3.57455         3.86618         3.06141         3.07296
            1356             211         4.87455         3.09960         4.54960         2.31339
            1357              84         2.69784         5.60768        -2.19309        -5.23731
            1357             122         3.26442         4.38306        -2.85753        -3.97616
            1358              35         5.69939         3.09401         5.00826         2.63153
            1358             148         4.86670         2.99427         4.00703         2.54266
            1359             514         2.10570         1.83308    -694.452E-03    -905.872E-03
            1359             558         1.76980         1.86483    -350.985E-03        -1.02686
            1360             136         4.51683         3.49669         3.88906         2.77870
            1360             234         3.92359         3.61566         3.26569         2.53891
            1361               7         10.1226         17.5003        -12.6580        -12.8912
            1361             152         5.64172         17.5003        -3.84808        -8.91234
            1362             150         4.06182         5.38087        -3.34976        -4.66881
            1362             152         5.64172         13.6310        -3.84808        -8.91234
            1363             213         1.24392         5.24810        -3.75221        -2.80649
            1363             224         2.14971         2.59628    -242.731E-03    -866.870E-03
            1364              43     687.027E-03         3.43642         4.93666         2.74207
            1364             195         4.70837         4.30612         3.75097         3.81736
            1365              37         5.42825         3.49023         4.99609         2.79339
            1365             184         4.27480         3.96985         3.96870         3.37787
            1366             144         4.45706         12.2712         3.94550         4.06648
            1366             195         4.70837         4.30612         3.75097         3.81736
            1367              56         5.15437         2.31296         4.62182         1.67987
            1367             175         4.56377         2.21800         4.29749         1.12461
            1368             323         2.76617         2.61547         1.99190         1.89368
            1368             326         2.03622         3.36726         1.57339         2.12626
            1369              58         4.51669         1.97316         3.96500         1.42147
            1369             153         3.49527         2.15035         2.57763         1.76091
            1370              58         4.51669         1.97316         3.96500         1.42147
            1370             156         3.84243         2.26580         3.17202         1.59539
            1371             155         3.98328         2.52963         3.04325         2.08986
            1371             156         3.84243         2.26580         3.17202         1.59539
            1372             258         1.82929         1.94746        -1.51294        -1.13424
            1372             294         1.71026         1.72542        -1.23041        -1.09039
            1373             145         4.34634         4.04704         3.71657         3.62322
            1373             176         4.38978         4.10803         3.61659         3.53956
            1374             217         2.05869         2.82363    -961.397E-03        -2.82363
            1374             250         2.54511         2.30790        -1.50587        -1.88445
            1375              65         1.71494         1.78155     576.225E-03     642.839E-03
            1375             168         1.92267         1.55051     47.7722E-03     683.195E-03
            1376              72         1.33337         1.49055    -746.589E-03        -1.49055
            1376             121         1.36883         1.41426    -757.643E-03        -1.28292
            1377              72         1.33337         1.49055    -746.589E-03        -1.49055
            1377             158         1.55076         1.71987        -1.25737        -1.22299
            1378             376         1.60382         1.58609        -1.01046    -678.532E-03
            1378             436         1.96669         1.91928    -958.973E-03    -964.217E-03
            1379              55         5.29423         2.47834         4.81637         1.77686
            1379             175         4.56377         2.21800         4.29749         1.12461
            1380             186         4.06030         4.01204         3.48071         3.48925
            1380             237         3.35341         3.69458         3.00305         2.75898
            1381              78         2.45187         4.37744        -1.76805        -3.69361
            1381             157         3.76822         3.77635        -3.42631        -2.35631
            1382              73         1.53798         1.83815    -873.737E-03        -1.83815
            1382             159         1.81991         1.85097        -1.48779        -1.29647
            1383              73         1.53798         1.83815    -873.737E-03        -1.83815
            1383             158         1.55076         1.71987        -1.25737        -1.22299
            1384               2     154.348E-03     130.754E-03     23.3589E-03    -30.0503E-03
            1384               3     112.803E-03     85.2705E-03    -8.45183E-03     26.3317E-03
            1385             117         2.54845         1.97342    -113.189E-03    -963.910E-03
            1385             240         3.37937         2.93381        -1.59969        -1.46613
            1386             162         2.24612         2.13800         1.67693         1.31418
            1386             171         2.13539         2.51970         1.22936         2.14474
            1387              62         3.36389         1.26825         2.22550         1.26825
            1387             162         2.24612         2.13800         1.67693         1.31418
            1388              77         2.49423         3.36557        -1.42025        -3.36557
            1388             172         2.59303         3.77045        -1.16766        -3.77045
            1389              76         1.94876         3.10330        -1.50167        -2.65621
            1389             166         2.59456         2.89764        -1.59662        -2.67410
            1390             207         5.03514         3.24410         4.73451         2.23669
            1390             311         2.89122         4.39508         2.19586         3.40875
            1391             209         2.69626         6.74407        -1.55253        -6.38800
            1391             321         3.23771         6.42084        -2.49129        -5.99355
            1392              68     804.409E-03     872.609E-03    -280.493E-03    -174.652E-03
            1392             165         1.79609         1.87152    -902.793E-03    -978.231E-03
            1393             161     682.636E-03         4.92477        -3.63587        -2.68666
            1393             165         1.79609         1.87152    -902.793E-03    -978.231E-03
            1394             327         1.36673         1.59403    -995.292E-03    -645.637E-03
            1394             328         1.77416         1.36476    -652.759E-03        -1.18419
            1395             166         2.59456         2.89764        -1.59662        -2.67410
            1395             174         2.17191         2.55707        -1.43996        -2.21440
            1396              55         5.29423         2.47834         4.81637         1.77686
            1396             178         4.04469         2.93994         3.74202         1.92992
            1397              74         1.73545         2.14125    -999.247E-03        -2.14125
            1397             173         1.90091         2.15796        -1.22718        -1.85233
            1398             162         2.24612         2.13800         1.67693         1.31418
            1398             171         2.13539         2.51970         1.22936         2.14474
            1399             169         1.88515         1.72030         1.00786     843.010E-03
            1399             170         2.07685         2.00303         1.45575         1.09729
            1400             173         1.90091         2.15796        -1.22718        -1.85233
            1400             295         2.11450         1.80720        -1.43002        -1.25271
            1401              63         3.07321         1.13396         1.83102         1.13396
            1401             170         2.07685         2.00303         1.45575         1.09729
            1402             162         2.24612         2.13800         1.67693         1.31418
            1402             170         2.07685         2.00303         1.45575         1.09729
            1403              61         3.57589         1.39625         2.51374         1.39625
            1403             171         2.13539         2.51970         1.22936         2.14474
            1404             154         2.16014         2.98015         1.65032         2.22554
            1404             171         2.13539         2.51970         1.22936         2.14474
            1405              77         2.49423         3.36557        -1.42025        -3.36557
            1405             166         2.59456         2.89764        -1.59662        -2.67410
            1406             114     456.161E-03     338.491E-03    -259.274E-03    -48.4762E-03
            1406             115     960.316E-03     937.200E-03    -747.875E-03    -459.563E-03
            1407             223         1.42703         1.31322    -880.463E-03        -1.05782
            1407             328         1.77416         1.36476    -652.759E-03        -1.18419
            1408              56         5.15437         2.31296         4.62182         1.67987
            1408             155         3.98328         2.52963         3.04325         2.08986
            1409             258         1.82929         1.94746        -1.51294        -1.13424
            1409             295         2.11450         1.80720        -1.43002        -1.25271
            1410             232         1.73032         1.89672    -821.864E-03        -1.63039
            1410             239         2.04057         2.13820        -1.10517        -1.76282
            1411             149         3.28962         4.47831         2.46386         4.21215
            1411             181         2.92893         4.15700         2.30535         3.39904
            1412             367         5.07115         3.93701        -3.81479        -2.85603
            1412             443         3.11799         3.36407        -2.42498        -2.67106
            1413             123     77.3903E-03         1.65794         3.97509         2.96149
            1413             308         5.03613         2.24231         4.23849         1.64394
            1414             169         1.88515         1.72030         1.00786     843.010E-03
            1414             285         2.36598         1.50530    -420.815E-03     876.104E-03
            1415              79         4.33359         3.94770        -3.37137        -2.98548
            1415              80         8.20573         3.13468        -5.35263        -3.13468
            1416              79         4.33359         3.94770        -3.37137        -2.98548
            1416             177         4.72931         4.78697        -3.12371        -4.30586
            1417               7         17.0449         3.00596        -12.6580        -12.8912
            1417              80         8.20573         3.13468        -5.35263        -3.13468
            1418             332         2.28133         2.26813    -139.399E-03    -966.099E-03
            1418             422         2.64232         2.57324        -1.65773    -860.778E-03
            1419              54         5.16304         2.71408         4.34119         2.40041
            1419             179         3.68538         3.37495         3.19529         2.65668
            1420             151         3.49463         3.37421         2.71509         2.78697
            1420             179         3.68538         3.37495         3.19529         2.65668
            1421             169         1.88515         1.72030         1.00786     843.010E-03
            1421             229         1.91601         1.90070     147.146E-03         1.32240
            1422              69     554.580E-03     387.568E-03    -114.004E-03    -275.479E-03
            1422             164     574.151E-03     655.551E-03    -317.060E-03    -398.460E-03
            1423              52         5.33311         2.59705         4.95612         1.80162
            1423             181         2.92893         4.15700         2.30535         3.39904
            1424              82         2.72685         6.40208        -1.95509        -5.63032
            1424             182         2.33665         5.83501        -1.49519        -5.51900
            1425              82         2.72685         6.40208        -1.95509        -5.63032
            1425             150         4.06182         5.38087        -3.34976        -4.66881
            1426              50         5.81119         2.84552         5.49489         2.05655
            1426             149         3.28962         4.47831         2.46386         4.21215
            1427              50         5.81119         2.84552         5.49489         2.05655
            1427             183         4.09361         3.96723         3.45467         3.54161
            1428             186         4.06030         4.01204         3.48071         3.48925
            1428             187         3.99480         3.80199         3.40104         3.00993
            1429             359         1.17805         1.32269    -555.771E-03    -818.848E-03
            1429             457         1.76465         1.73975    -831.572E-03    -581.264E-03
            1430             248         2.64852         4.63129         1.98096         3.96373
            1430             266         2.43061         5.04727         1.48379         4.45527
            1431             223         1.42703         1.31322    -880.463E-03        -1.05782
            1431             253         1.54322         1.77182    -956.852E-03        -1.18545
            1432              49         5.94621         2.85750         5.58922         2.12681
            1432             183         4.09361         3.96723         3.45467         3.54161
            1433              49         5.94621         2.85750         5.58922         2.12681
            1433             186         4.06030         4.01204         3.48071         3.48925
            1434             166         2.59456         2.89764        -1.59662        -2.67410
            1434             174         2.17191         2.55707        -1.43996        -2.21440
            1435             146         4.86936         3.09033         4.21936         2.41610
            1435             187         3.99480         3.80199         3.40104         3.00993
            1436              93         2.95529         5.33141        -2.07600        -5.07618
            1436             199         3.16077         4.30425        -2.41204        -3.92995
            1437             131         4.02447         5.17550        -2.40073        -5.17550
            1437             210         4.99270         13.2175        -2.91489        -9.64356
            1438               8         17.1787         3.10421        -12.8904        -12.6232
            1438             102         17.1787         5.67350        -4.37074        -4.61356
            1439              33     864.438E-03         3.48561         5.34684         2.91638
            1439             188         4.27333         4.19846         3.88367         3.34819
            1440             136         4.51683         3.49669         3.88906         2.77870
            1440             188         4.27333         4.19846         3.88367         3.34819
            1441              31         5.82917         3.07776         5.57683         2.11297
            1441             201         5.42820         2.54280         5.12072         1.54187
            1442              95         3.03758         6.31740        -2.25711        -5.89373
            1442             140         3.10786         5.10634        -2.65861        -4.26156
            1443              86         2.94776         5.91498        -2.32808        -5.71405
            1443             189         4.32579         3.95954        -3.71977        -3.53298
            1444              86         2.94776         5.91498        -2.32808        -5.71405
            1444             147         3.78983         4.11137        -3.49867        -3.57948
            1445              87         2.89819         5.60087        -2.16894        -5.36617
            1445             191         3.36584         3.68249        -2.64904        -3.21297
            1446              87         2.89819         5.60087        -2.16894        -5.36617
            1446             189         4.32579         3.95954        -3.71977        -3.53298
            1447              39     721.741E-03         3.24385         5.68249         2.25965
            1447             192         4.62832         3.24155         4.08399         2.39760
            1448             139         3.91688         4.22494         3.36021         3.31232
            1448             264         3.65098         3.39477         2.70739         2.76857
            1449              88         2.82863         5.23360        -2.11910        -5.03270
            1449             193         3.45603         3.74670        -3.03645        -3.15007
            1450              88         2.82863         5.23360        -2.11910        -5.03270
            1450             191         3.36584         3.68249        -2.64904        -3.21297
            1451              89         2.89694         5.34693        -2.26335        -5.15720
            1451             194         3.56578         4.11218        -3.17693        -3.73175
            1452              89         2.89694         5.34693        -2.26335        -5.15720
            1452             193         3.45603         3.74670        -3.03645        -3.15007
            1453             148         4.86670         2.99427         4.00703         2.54266
            1453             196         4.03194         3.79187         3.55031         3.04255
            1454             204         5.11838         3.29734         4.55790         2.66655
            1454             266         2.43061         5.04727         1.48379         4.45527
            1455              90         2.97806         5.45220        -2.34244        -5.28605
            1455             197         3.01067         4.73247        -2.14154        -4.59562
            1456              90         2.97806         5.45220        -2.34244        -5.28605
            1456             194         3.56578         4.11218        -3.17693        -3.73175
            1457             135         3.71634         4.85798        -3.09119        -4.67988
            1457             202         4.01220         4.28572        -3.72002        -3.78605
            1458             177         4.72931         4.78697        -3.12371        -4.30586
            1458             249         3.31938         4.71322        -2.19129        -3.63509
            1459              95         3.03758         6.31740        -2.25711        -5.89373
            1459             203         3.37561         4.75760        -2.61823        -4.15313
            1460              96         2.85941         6.00723        -2.28852        -5.65853
            1460             198         3.87506         3.95097        -3.47091        -3.43691
            1461             188         4.27333         4.19846         3.88367         3.34819
            1461             204         5.11838         3.29734         4.55790         2.66655
            1462              93         2.95529         5.33141        -2.07600        -5.07618
            1462             141         3.44478         3.94417        -2.82982        -3.68495
            1463              38         5.88116         3.10395         5.62072         2.14539
            1463             200         4.06653         4.08530         3.41498         3.41975
            1464             130         2.36656         4.26235         2.25556         3.17051
            1464             212         3.31201         3.67981         3.19625         2.64164
            1465              27         5.73393         3.01359         5.50055         1.98499
            1465             138         4.39477         3.40267         4.01522         2.30072
            1466             185         3.59593         3.96302        -3.27213        -3.50213
            1466             307         3.42995         3.44024        -3.04874        -3.11646
            1467             133         3.57455         3.86618         3.06141         3.07296
            1467             255         4.53950         2.13297         4.18722     967.031E-03
            1468             205         1.93466         8.62078        -4.58052        -8.09081
            1468             316         3.68505         5.57508        -3.31157        -5.46754
            1469             350         3.93916         3.53676        -3.93916        -1.27136
            1469             430         2.63226         3.38781        -1.07883        -2.83469
            1470              26         5.78575         3.05258         5.59364         2.06915
            1470             211         4.87455         3.09960         4.54960         2.31339
            1471             327         1.36673         1.59403    -995.292E-03    -645.637E-03
            1471             358         1.65540         1.88307    -915.152E-03    -797.093E-03
            1472             173         1.90091         2.15796        -1.22718        -1.85233
            1472             292         2.62186         1.93713        -1.49677        -1.63150
            1473             214         3.21756         3.10948        -2.20736        -2.65561
            1473             325         4.16819         3.08183        -2.78389        -2.53717
            1474              97         3.23326         2.63827        -2.50904        -5.83767
            1474             206         4.02748         4.66325        -3.23707        -4.28083
            1475              97         3.23326     200.901E-03        -2.50904        -5.83767
            1475             198         3.87506         3.95097        -3.47091        -3.43691
            1476             139         3.91688         4.22494         3.36021         3.31232
            1476             207         5.03514         3.24410         4.73451         2.23669
            1477              24         4.84938         3.26409         4.61908         2.37063
            1477             212         3.31201         3.67981         3.19625         2.64164
            1478             268     951.745E-03         1.07433    -951.745E-03    -221.960E-03
            1478             376         1.60382         1.58609        -1.01046    -678.532E-03
            1479             129         3.10568         3.12068         2.44456         2.60923
            1479             257         1.66413         4.47485     602.091E-03         4.08271
            1480               8         10.9571         17.4863        -12.8904        -12.6232
            1480             210         4.99270         17.4863        -2.91489        -9.64356
            1481               8         17.5008         10.2819        -12.8904        -12.6232
            1481             205         17.5008         8.62078        -4.58052        -8.09081
            1482             133         3.57455         3.86618         3.06141         3.07296
            1482             211         4.87455         3.09960         4.54960         2.31339
            1483             182         2.33665         5.83501        -1.49519        -5.51900
            1483             276         2.58797         4.64743        -1.90899        -4.42572
            1484               9     861.282E-03     879.011E-03    -815.824E-03     390.894E-03
            1484             268     951.745E-03         1.07433    -951.745E-03    -221.960E-03
            1485             121         1.36883         1.41426    -757.643E-03        -1.28292
            1485             167         1.26694         1.03655    -766.808E-03    -782.558E-03
            1486             117         2.54845         1.97342    -113.189E-03    -963.910E-03
            1486             225         2.02585         2.34017        -1.24542     240.092E-03
            1487              11         3.07775         2.28982    -417.076E-03    -700.973E-03
            1487             213         3.45086         5.24810        -3.75221        -2.80649
            1488             118         2.01846         2.17096         2.01846     601.055E-03
            1488             221         2.32981         1.94409         2.32981     586.794E-03
            1489             111         1.18429         1.61126    -866.842E-03        -1.29381
            1489             223         1.42703         1.31322    -880.463E-03        -1.05782
            1490             104         3.11114         4.66637        -1.35815        -4.66637
            1490             214         3.21756         3.10948        -2.20736        -2.65561
            1491             202         4.01220         4.28572        -3.72002        -3.78605
            1491             206         4.02748         4.66325        -3.23707        -4.28083
            1492             327         1.36673         1.59403    -995.292E-03    -645.637E-03
            1492             328         1.77416         1.36476    -652.759E-03        -1.18419
            1493             143         2.65293         5.05822        -1.87484        -4.86396
            1493             246         3.44868         3.49654        -2.71230        -3.14244
            1494              13         1.97816         1.82737         1.97816     318.610E-03
            1494             216         2.21288         1.54474         1.63938     216.861E-03
            1495              12         1.67404         1.99540     992.860E-03     184.898E-03
            1495             224         2.14971         2.59628    -242.731E-03    -866.870E-03
            1496             261         1.54126         1.63813    -919.482E-03        -1.01635
            1496             294         1.71026         1.72542        -1.23041        -1.09039
            1497              19         4.10562         2.32623         4.10562         1.30025
            1497             126         3.08434         2.90726         3.05155         1.67248
            1498              19         4.10562         2.32623         4.10562         1.30025
            1498             218         3.06631         2.65817         3.06631         1.34225
            1499             216         2.21288         1.54474         1.63938     216.861E-03
            1499             227         2.21125         1.75108     931.237E-03     471.071E-03
            1500             115     960.316E-03     937.200E-03    -747.875E-03    -459.563E-03
            1500             219         1.28732         1.08082    -550.882E-03    -969.141E-03
            1501             112         1.11477         1.08764    -532.438E-03        -1.08764
            1501             219         1.28732         1.08082    -550.882E-03    -969.141E-03
            1502             183         4.09361         3.96723         3.45467         3.54161
            1502             238         3.64444         3.44806         2.52861         3.26320
            1503              16         3.14881         1.82193         3.14881     762.300E-03
            1503             221         2.32981         1.94409         2.32981     586.794E-03
            1504             110         1.30916         1.94511    -974.282E-03        -1.61023
            1504             222         1.47704         1.66591    -802.283E-03        -1.50719
            1505             110         1.30916         1.94511    -974.282E-03        -1.61023
            1505             132         1.43049         2.00828    -996.715E-03        -1.57451
            1506             191         3.36584         3.68249        -2.64904        -3.21297
            1506             251         3.71175         3.34818        -2.77023        -3.13379
            1507             408         3.80602         2.11761         2.73806         1.82469
            1507             423         2.52053         2.18477         1.38771         1.78096
            1508             199         3.16077         4.30425        -2.41204        -3.92995
            1508             256         4.55217         2.14607        -4.00545        -1.57280
            1509             149         3.28962         4.47831         2.46386         4.21215
            1509             228         3.46088         3.46088         2.75974         2.75974
            1510             213         1.94667         5.24810        -3.75221        -2.80649
            1510             224         2.14971         2.59628    -242.731E-03    -866.870E-03
            1511               2     154.348E-03     130.754E-03     23.3589E-03    -30.0503E-03
            1511             164     574.151E-03     655.551E-03    -317.060E-03    -398.460E-03
            1512              68     804.409E-03     872.609E-03    -280.493E-03    -174.652E-03
            1512             241     768.676E-03         1.00904    -434.420E-03    -674.786E-03
            1513             153         3.49527         2.15035         2.57763         1.76091
            1513             297         2.48640         2.85014         2.09696         1.52235
            1514             246         3.44868         3.49654        -2.71230        -3.14244
            1514             309         3.35099         3.56646        -2.57707        -3.03974
            1515             124         2.61903         2.74352         2.61903         1.37984
            1515             230         2.69503         2.18896         2.14657     838.695E-03
            1516             239         2.04057         2.13820        -1.10517        -1.76282
            1516             378         2.46728         2.05805        -2.08833    -738.342E-03
            1517             240         3.37937         2.93381        -1.59969        -1.46613
            1517             345         2.63008         2.57397        -1.56823    -657.347E-03
            1518             169         1.88515         1.72030         1.00786     843.010E-03
            1518             285         2.36598         1.50530    -420.815E-03     876.104E-03
            1519             114     456.161E-03     338.491E-03    -259.274E-03    -48.4762E-03
            1519             259         1.05876     936.471E-03    -680.636E-03    -534.195E-03
            1520             140         3.10786         5.10634        -2.65861        -4.26156
            1520             367         5.07115         3.93701        -3.81479        -2.85603
            1521             170         2.07685         2.00303         1.45575         1.09729
            1521             293         1.90059         2.16881         1.37326     735.747E-03
            1522             166         2.59456         2.89764        -1.59662        -2.67410
            1522             236         2.76986         3.38436        -1.99547        -2.36825
            1523             189         4.32579         3.95954        -3.71977        -3.53298
            1523             254         4.25447         3.11484        -3.87909        -2.75551
            1524             251         3.71175         3.34818        -2.77023        -3.13379
            1524             278         3.32058         3.81985        -3.23673        -3.03143
            1525             194         3.56578         4.11218        -3.17693        -3.73175
            1525             278         3.32058         3.81985        -3.23673        -3.03143
            1526             264         3.65098         3.39477         2.70739         2.76857
            1526             413         1.64049         4.87244     2.50138E-03         4.34210
            1527             221         2.32981         1.94409         2.32981     586.794E-03
            1527             330         3.03367         1.22239         2.24328     297.735E-03
            1528             147         3.78983         4.11137        -3.49867        -3.57948
            1528             185         3.59593         3.96302        -3.27213        -3.50213
            1529             321         3.23771         6.42084        -2.49129        -5.99355
            1529             322         3.16348         5.28920        -2.40784        -5.11084
            1530             481         2.34320         1.37134     388.969E-03     984.075E-03
            1530             541         2.93894         1.65948    -106.835E-03         1.09935
            1531             241     768.676E-03         1.00904    -434.420E-03    -674.786E-03
            1531             452         1.49394         1.65564    -913.542E-03        -1.07524
            1532             323         2.76617         2.61547         1.99190         1.89368
            1532             326         2.03622         3.36726         1.57339         2.12626
            1533             178         4.04469         2.93994         3.74202         1.92992
            1533             302         3.58070         2.58841         3.45196         1.14787
            1534             208         5.17310         2.60688         4.86367         1.58055
            1534             211         4.87455         3.09960         4.54960         2.31339
            1535             179         3.68538         3.37495         3.19529         2.65668
            1535             302         3.58070         2.58841         3.45196         1.14787
            1536             304         3.23820         5.98687        -2.84830        -5.83830
            1536             365         2.31573         5.04107        -1.76843        -4.75050
            1537             181         2.92893         4.15700         2.30535         3.39904
            1537             277         3.02904         3.69065         2.17896         2.63411
            1538             284         2.38907         4.93993         1.60352         4.48400
            1538             410         1.24929         4.91046     404.001E-03         4.35919
            1539             408         3.80602         2.11761         2.73806         1.82469
            1539             423         2.52053         2.18477         1.38771         1.78096
            1540             155         3.98328         2.52963         3.04325         2.08986
            1540             265         3.01821         2.64617         2.62364         1.29047
            1541             150         4.06182         5.38087        -3.34976        -4.66881
            1541             243         3.67224         5.34044        -3.10472        -5.01426
            1542             342         2.75150         4.31775        -2.14122        -4.01555
            1542             365         2.31573         5.04107        -1.76843        -4.75050
            1543             242         3.05121         4.62503        -2.48337        -4.05720
            1543             385         3.22459         3.27685        -2.76733        -2.96069
            1544             160         1.01196     851.311E-03    -425.553E-03    -764.696E-03
            1544             291         1.06221         1.03538    -499.916E-03    -725.635E-03
            1545             161         3.13731         4.92477        -3.63587        -2.68666
            1545             165         1.79609         1.87152    -902.793E-03    -978.231E-03
            1546             187         3.99480         3.80199         3.40104         3.00993
            1546             237         3.35341         3.69458         3.00305         2.75898
            1547             472         4.60263     888.215E-03        -4.28537    -377.572E-03
            1547             490         3.47902         1.60217        -2.83852        -1.20221
            1548             206         4.02748         4.66325        -3.23707        -4.28083
            1548             274         5.03917         2.60922        -4.83582        -2.14776
            1549             476         2.36829         1.79947    -981.073E-03    -763.391E-03
            1549             478         2.45356         1.66602        -1.09139     240.935E-03
            1550             250         2.54511         2.30790        -1.50587        -1.88445
            1550             267         2.81688         2.63757        -1.65801        -2.16891
            1551             387         1.57529         4.71420     450.579E-03         4.07667
            1551             413         1.64049         4.87244     2.50138E-03         4.34210
            1552             191         3.36584         3.68249        -2.64904        -3.21297
            1552             252         4.61945         2.59073        -3.93663        -2.27132
            1553             309         3.35099         3.56646        -2.57707        -3.03974
            1553             334         4.25857         2.06234        -3.71403        -1.16100
            1554             122         3.26442         4.38306        -2.85753        -3.97616
            1554             185         3.59593         3.96302        -3.27213        -3.50213
            1555             123         13.4339         5.80026         3.97509         2.96149
            1555             142         4.77210         5.80026         4.15436         3.47379
            1556             182         2.33665         5.83501        -1.49519        -5.51900
            1556             242         3.05121         4.62503        -2.48337        -4.05720
            1557             177         4.72931         4.78697        -3.12371        -4.30586
            1557             288         3.91413         5.87290        -2.64472        -5.15064
            1558             142         4.77210         6.43283         4.15436         3.47379
            1558             144         4.45706         6.43283         3.94550         4.06648
            1559             140         3.10786         5.10634        -2.65861        -4.26156
            1559             270         3.65920         3.17900        -3.06158        -2.74207
            1560             127         2.31680         3.11600        -2.08155        -2.08703
            1560             267         2.81688         2.63757        -1.65801        -2.16891
            1561             255         4.53950         2.13297         4.18722     967.031E-03
            1561             275         2.94275         3.73864         2.56692         2.70352
            1562             175         4.56377         2.21800         4.29749         1.12461
            1562             289         2.57714         3.40844         2.51340         1.86223
            1563             128         1.54100         2.20912    -811.136E-03        -1.12305
            1563             268     951.745E-03         1.07433    -951.745E-03    -221.960E-03
            1564             346         2.24602         1.66786        -1.47548        -1.07415
            1564             347         1.81569         2.02305        -1.15889        -1.31204
            1565             531         1.83324         3.19730        -1.32601        -2.54295
            1565             578         3.03533         1.44272        -2.80443    -715.679E-03
            1566             369         1.81624         1.96633        -1.04136        -1.19145
            1566             379         2.00714         1.61627    -911.506E-03        -1.05882
            1567             528         2.64854         1.74853         1.44467    -98.4942E-03
            1567             557         2.52021         1.94576    -768.159E-03     364.410E-03
            1568             134         2.94069         1.80316         2.94069     471.535E-03
            1568             230         2.69503         2.18896         2.14657     838.695E-03
            1569             323         2.76617         2.61547         1.99190         1.89368
            1569             418         2.11966         3.18766     706.474E-03         2.70360
            1570             230         2.69503         2.18896         2.14657     838.695E-03
            1570             330         3.03367         1.22239         2.24328     297.735E-03
            1571             201         5.42820         2.54280         5.12072         1.54187
            1571             234         3.92359         3.61566         3.26569         2.53891
            1572             154         2.16014         2.98015         1.65032         2.22554
            1572             296         1.84343         3.07437         1.39215         1.86848
            1573             352         2.37158         3.61769        -1.13098        -3.56255
            1573             501         1.05140         3.78658    -64.3808E-03        -3.36971
            1574             166         2.59456         2.89764        -1.59662        -2.67410
            1574             298         2.62702         2.76261        -1.34151        -2.41994
            1575             155         3.98328         2.52963         3.04325         2.08986
            1575             156         3.84243         2.26580         3.17202         1.59539
            1576             316         3.68505         5.57508        -3.31157        -5.46754
            1576             321         3.23771         6.42084        -2.49129        -5.99355
            1577             159         1.81991         1.85097        -1.48779        -1.29647
            1577             258         1.82929         1.94746        -1.51294        -1.13424
            1578             465         3.06090         4.03771        -2.43816        -2.40505
            1578             502         3.19245         3.48437        -1.98640        -1.74517
            1579             225         2.02585         2.34017        -1.24542     240.092E-03
            1579             285         2.36598         1.50530    -420.815E-03     876.104E-03
            1580             162         2.24612         2.13800         1.67693         1.31418
            1580             170         2.07685         2.00303         1.45575         1.09729
            1581             162         2.24612         2.13800         1.67693         1.31418
            1581             293         1.90059         2.16881         1.37326     735.747E-03
            1582             258         1.82929         1.94746        -1.51294        -1.13424
            1582             295         2.11450         1.80720        -1.43002        -1.25271
            1583             218         3.06631         2.65817         3.06631         1.34225
            1583             260         2.18145         2.98298         1.14856         2.15567
            1584             230         2.69503         2.18896         2.14657     838.695E-03
            1584             260         2.18145         2.98298         1.14856         2.15567
            1585              69     554.580E-03     387.568E-03    -114.004E-03    -275.479E-03
            1585             291         1.06221         1.03538    -499.916E-03    -725.635E-03
            1586             213         1.04372         5.24810        -3.75221        -2.80649
            1586             263         3.24822         2.79472        -1.87623        -1.56678
            1587             210         4.99270         8.49101        -2.91489        -9.64356
            1587             317         4.54178         5.34840        -3.17375        -4.99825
            1588             313         3.76394         3.63599         3.14223         3.01059
            1588             356         1.69581         4.38438     556.890E-03         3.72753
            1589             135         3.71634         4.85798        -3.09119        -4.67988
            1589             202         4.01220         4.28572        -3.72002        -3.78605
            1590             211         4.87455         3.09960         4.54960         2.31339
            1590             315         4.21274         2.83300         3.86728         1.95035
            1591             138         4.39477         3.40267         4.01522         2.30072
            1591             264         3.65098         3.39477         2.70739         2.76857
            1592             426         2.16723         3.57683        -1.63063        -2.88340
            1592             485         1.49386         3.42648    -593.837E-03        -3.38201
            1593             201         5.42820         2.54280         5.12072         1.54187
            1593             313         3.76394         3.63599         3.14223         3.01059
            1594             207         5.03514         3.24410         4.73451         2.23669
            1594             313         3.76394         3.63599         3.14223         3.01059
            1595             186         4.06030         4.01204         3.48071         3.48925
            1595             279         3.32183         3.84484         2.22606         3.60682
            1596             248         2.64852         4.63129         1.98096         3.96373
            1596             340         1.67711         4.30461     602.690E-03         3.54150
            1597             249         3.31938         4.71322        -2.19129        -3.63509
            1597             299         3.48641         3.59920        -2.59803        -2.51204
            1598             116     614.464E-03     420.065E-03    -437.030E-03    -147.013E-03
            1598             268     951.745E-03         1.07433    -951.745E-03    -221.960E-03
            1599             212         3.31201         3.67981         3.19625         2.64164
            1599             275         2.94275         3.73864         2.56692         2.70352
            1600             212         3.31201         3.67981         3.19625         2.64164
            1600             255         4.53950         2.13297         4.18722     967.031E-03
            1601             197         3.01067         4.73247        -2.14154        -4.59562
            1601             271         3.65427         3.29137        -3.31588        -2.37908
            1602             238         3.64444         3.44806         2.52861         3.26320
            1602             279         3.32183         3.84484         2.22606         3.60682
            1603             261         1.54126         1.63813    -919.482E-03        -1.01635
            1603             373         1.95629         1.77263    -832.980E-03        -1.22790
            1604             196         4.03194         3.79187         3.55031         3.04255
            1604             301         3.35107         3.94820         3.08175         3.30522
            1605             216         2.21288         1.54474         1.63938     216.861E-03
            1605             272         1.85881         2.31683         1.07653    -722.467E-03
            1606             189         4.32579         3.95954        -3.71977        -3.53298
            1606             252         4.61945         2.59073        -3.93663        -2.27132
            1607             127         2.31680         3.11600        -2.08155        -2.08703
            1607             324         3.42856         2.73173        -2.47798        -1.93801
            1608             214         3.21756         3.10948        -2.20736        -2.65561
            1608             324         3.42856         2.73173        -2.47798        -1.93801
            1609             391         2.47128         2.59839        -1.65182        -1.55218
            1609             396         2.39372         1.82202    -899.014E-03        -1.82202
            1610             278         3.32058         3.81985        -3.23673        -3.03143
            1610             352         2.37158         3.61769        -1.13098        -3.56255
            1611             387         1.57529         4.71420     450.579E-03         4.07667
            1611             435         1.98077         3.08933     871.489E-03         1.98005
            1612             257         1.66413         4.47485     602.091E-03         4.08271
            1612             275         2.94275         3.73864         2.56692         2.70352
            1613             226         4.01252         3.57903         3.23464         3.00584
            1613             283         4.19749         3.99177         3.26857         3.15670
            1614             142         4.77210         1.23272         4.15436         3.47379
            1614             306         3.88380         3.88909         3.34458         2.77964
            1615             181         2.92893         4.15700         2.30535         3.39904
            1615             228         3.46088         3.46088         2.75974         2.75974
            1616             267         2.81688         2.63757        -1.65801        -2.16891
            1616             374         3.15117         2.05966        -2.20885        -1.11734
            1617             155         3.98328         2.52963         3.04325         2.08986
            1617             300         3.27430         2.57214         2.88480         1.26531
            1618             121         1.36883         1.41426    -757.643E-03        -1.28292
            1618             294         1.71026         1.72542        -1.23041        -1.09039
            1619             186         4.06030         4.01204         3.48071         3.48925
            1619             237         3.35341         3.69458         3.00305         2.75898
            1620             146         4.86936         3.09033         4.21936         2.41610
            1620             190         5.09108         3.45548         4.81521         2.50862
            1621             190         5.09108         3.45548         4.81521         2.50862
            1621             280         2.71509         4.65915         2.05726         4.00132
            1622             430         2.63226         3.38781        -1.07883        -2.83469
            1622             544         2.65915         2.32814        -1.55583        -1.22483
            1623             176         4.38978         4.10803         3.61659         3.53956
            1623             283         4.19749         3.99177         3.26857         3.15670
            1624             145         4.34634         4.04704         3.71657         3.62322
            1624             235         3.51916         4.37874         3.03159         3.48939
            1625             200         4.06653         4.08530         3.41498         3.41975
            1625             281         3.39350         3.73877         2.29025         3.39399
            1626             200         4.06653         4.08530         3.41498         3.41975
            1626             233         3.80716         3.50838         3.27780         2.73898
            1627             123     219.034E-03         3.87146         3.97509         2.96149
            1627             282         4.12832         2.97463         3.80342         1.73486
            1628             281         3.39350         3.73877         2.29025         3.39399
            1628             282         4.12832         2.97463         3.80342         1.73486
            1629             239         2.04057         2.13820        -1.10517        -1.76282
            1629             346         2.24602         1.66786        -1.47548        -1.07415
            1630             148         4.86670         2.99427         4.00703         2.54266
            1630             284         2.38907         4.93993         1.60352         4.48400
            1631             266         2.43061         5.04727         1.48379         4.45527
            1631             284         2.38907         4.93993         1.60352         4.48400
            1632             250         2.54511         2.30790        -1.50587        -1.88445
            1632             378         2.46728         2.05805        -2.08833    -738.342E-03
            1633             292         2.62186         1.93713        -1.49677        -1.63150
            1633             396         2.39372         1.82202    -899.014E-03        -1.82202
            1634             154         2.16014         2.98015         1.65032         2.22554
            1634             286         1.95169         2.52448     697.496E-03         2.14952
            1635             265         3.01821         2.64617         2.62364         1.29047
            1635             297         2.48640         2.85014         2.09696         1.52235
            1636             249         3.31938         4.71322        -2.19129        -3.63509
            1636             350         3.93916         3.53676        -3.93916        -1.27136
            1637             242         3.05121         4.62503        -2.48337        -4.05720
            1637             342         2.75150         4.31775        -2.14122        -4.01555
            1638             261         1.54126         1.63813    -919.482E-03        -1.01635
            1638             287         1.46947         1.39510    -883.890E-03    -748.772E-03
            1639             160         1.01196     851.311E-03    -425.553E-03    -764.696E-03
            1639             287         1.46947         1.39510    -883.890E-03    -748.772E-03
            1640             184         4.27480         3.96985         3.96870         3.37787
            1640             301         3.35107         3.94820         3.08175         3.30522
            1641             175         4.56377         2.21800         4.29749         1.12461
            1641             178         4.04469         2.93994         3.74202         1.92992
            1642             284         2.38907         4.93993         1.60352         4.48400
            1642             411         1.67339         4.53267     383.206E-03         4.02453
            1643             171         2.13539         2.51970         1.22936         2.14474
            1643             290         2.41104         1.68744         1.49642     863.617E-03
            1644             462         3.69968         1.35786         3.09485    -16.8300E-03
            1644             528         2.64854         1.74853         1.44467    -98.4942E-03
            1645             361         2.36276         3.10361        -1.71576        -1.42353
            1645             422         2.64232         2.57324        -1.65773    -860.778E-03
            1646             173         1.90091         2.15796        -1.22718        -1.85233
            1646             292         2.62186         1.93713        -1.49677        -1.63150
            1647             153         3.49527         2.15035         2.57763         1.76091
            1647             154         2.16014         2.98015         1.65032         2.22554
            1648             442         2.01805         2.24304     829.694E-03         1.05468
            1648             518         2.01770         1.75690         1.14899    -325.602E-03
            1649             274         5.03917         2.60922        -4.83582        -2.14776
            1649             382         4.79029         1.54752        -4.53200        -1.19657
            1650             226         4.01252         3.57903         3.23464         3.00584
            1650             339         3.23252         2.78167         2.02865         2.28598
            1651             234         3.92359         3.61566         3.26569         2.53891
            1651             356         1.69581         4.38438     556.890E-03         3.72753
            1652             238         3.64444         3.44806         2.52861         3.26320
            1652             383         3.30396         2.77779         2.43924         2.00045
            1653             174         2.17191         2.55707        -1.43996        -2.21440
            1653             298         2.62702         2.76261        -1.34151        -2.41994
            1654             371         3.39837         3.84360        -2.69867        -2.80918
            1654             412         3.27154         3.23561        -1.81588        -2.73053
            1655             361         2.36276         3.10361        -1.71576        -1.42353
            1655             431         2.35523         2.84775        -1.52162        -1.15604
            1656             249         3.31938         4.71322        -2.19129        -3.63509
            1656             350         3.93916         3.53676        -3.93916        -1.27136
            1657             289         2.57714         3.40844         2.51340         1.86223
            1657             302         3.58070         2.58841         3.45196         1.14787
            1658             324         3.42856         2.73173        -2.47798        -1.93801
            1658             412         3.27154         3.23561        -1.81588        -2.73053
            1659             172         2.59303         3.77045        -1.16766        -3.77045
            1659             299         3.48641         3.59920        -2.59803        -2.51204
            1660             172         2.59303         3.77045        -1.16766        -3.77045
            1660             236         2.76986         3.38436        -1.99547        -2.36825
            1661             140         3.10786         5.10634        -2.65861        -4.26156
            1661             367         5.07115         3.93701        -3.81479        -2.85603
            1662             407         2.97466         3.12049        -2.16734        -2.43123
            1662             428         2.34167         2.69164        -1.06720        -1.73844
            1663             312         4.75562         2.74073        -4.39961        -2.30750
            1663             318         3.35439         4.63949        -2.69175        -4.42389
            1664             460         1.92555         2.59079    -539.571E-03         2.14977
            1664             587         2.70459         2.17916     175.710E-03     554.988E-03
            1665             318         3.35439         4.63949        -2.69175        -4.42389
            1665             409         4.94262         1.88118        -4.58800        -1.52656
            1666             246         3.44868         3.49654        -2.71230        -3.14244
            1666             427         2.56301         3.38547        -2.01199        -2.66749
            1667             151         3.49463         3.37421         2.71509         2.78697
            1667             179         3.68538         3.37495         3.19529         2.65668
            1668             151         3.49463         3.37421         2.71509         2.78697
            1668             303         3.74060         2.52271         3.31322         1.63630
            1669             243         3.67224         5.34044        -3.10472        -5.01426
            1669             304         3.23820         5.98687        -2.84830        -5.83830
            1670             180     21.7795E-03         8.58768        -3.85662        -8.58405
            1670             304         3.23820         5.98687        -2.84830        -5.83830
            1671             288         3.91413         5.87290        -2.64472        -5.15064
            1671             304         3.23820         5.98687        -2.84830        -5.83830
            1672             187         3.99480         3.80199         3.40104         3.00993
            1672             305         3.27484         4.10393         2.45830         3.07935
            1673             197         3.01067         4.73247        -2.14154        -4.59562
            1673             271         3.65427         3.29137        -3.31588        -2.37908
            1674             197         3.01067         4.73247        -2.14154        -4.59562
            1674             309         3.35099         3.56646        -2.57707        -3.03974
            1675             426         2.16723         3.57683        -1.63063        -2.88340
            1675             485         1.49386         3.42648    -593.837E-03        -3.38201
            1676             272         1.85881         2.31683         1.07653    -722.467E-03
            1676             377         2.27216         2.36172    -559.434E-03    -469.873E-03
            1677             140         3.10786         5.10634        -2.65861        -4.26156
            1677             364         4.07722         3.29366        -3.52746        -2.35702
            1678             278         3.32058         3.81985        -3.23673        -3.03143
            1678             407         2.97466         3.12049        -2.16734        -2.43123
            1679             247         3.42751         3.31829        -3.14354        -2.87436
            1679             254         4.25447         3.11484        -3.87909        -2.75551
            1680             196         4.03194         3.79187         3.55031         3.04255
            1680             310         3.30483         4.09164         2.64105         3.19979
            1681             284         2.38907         4.93993         1.60352         4.48400
            1681             310         3.30483         4.09164         2.64105         3.19979
            1682             264         3.65098         3.39477         2.70739         2.76857
            1682             311         2.89122         4.39508         2.19586         3.40875
            1683             362         2.89865         3.19913        -2.52753        -2.84195
            1683             385         3.22459         3.27685        -2.76733        -2.96069
            1684             341         3.19557         2.78927        -2.21456        -1.32514
            1684             344         2.18032         2.31312        -1.29361        -1.42640
            1685             241     768.676E-03         1.00904    -434.420E-03    -674.786E-03
            1685             344         2.18032         2.31312        -1.29361        -1.42640
            1686             240         3.37937         2.93381        -1.59969        -1.46613
            1686             341         3.19557         2.78927        -2.21456        -1.32514
            1687             138         4.39477         3.40267         4.01522         2.30072
            1687             319         4.53693         2.85725         3.34291         2.15404
            1688             202         4.01220         4.28572        -3.72002        -3.78605
            1688             312         4.75562         2.74073        -4.39961        -2.30750
            1689             244         2.69261         3.29244        -2.05320        -1.21129
            1689             245         3.29600         3.07526        -2.64435    -981.872E-03
            1690             245         3.29600         3.07526        -2.64435    -981.872E-03
            1690             341         3.19557         2.78927        -2.21456        -1.32514
            1691             358         1.65540         1.88307    -915.152E-03    -797.093E-03
            1691             379         2.00714         1.61627    -911.506E-03        -1.05882
            1692             373         1.95629         1.77263    -832.980E-03        -1.22790
            1692             390         1.76626         1.79990        -1.03429    -729.609E-03
            1693             249         3.31938         4.71322        -2.19129        -3.63509
            1693             355         3.94771         3.82345        -2.23118        -3.46062
            1694             208         5.17310         2.60688         4.86367         1.58055
            1694             315         4.21274         2.83300         3.86728         1.95035
            1695             189         4.32579         3.95954        -3.71977        -3.53298
            1695             333         3.86947         3.87756        -3.11233        -3.12042
            1696             215         3.56759         2.58464         3.20388         1.73233
            1696             273         2.36185         3.32644         1.70459         2.60344
            1697             137         2.77646         6.04181        -1.60522        -6.04181
            1697             318         3.35439         4.63949        -2.69175        -4.42389
            1698             276         2.58797         4.64743        -1.90899        -4.42572
            1698             362         2.89865         3.19913        -2.52753        -2.84195
            1699             335         3.15810         2.77864        -3.10989        -2.14816
            1699             362         2.89865         3.19913        -2.52753        -2.84195
            1700             135         3.71634         4.85798        -3.09119        -4.67988
            1700             318         3.35439         4.63949        -2.69175        -4.42389
            1701             135         3.71634         4.85798        -3.09119        -4.67988
            1701             312         4.75562         2.74073        -4.39961        -2.30750
            1702             137         2.77646         6.04181        -1.60522        -6.04181
            1702             322         3.16348         5.28920        -2.40784        -5.11084
            1703             415         2.68420         3.21061         1.11483         2.57000
            1703             418         2.11966         3.18766     706.474E-03         2.70360
            1704             255         4.53950         2.13297         4.18722     967.031E-03
            1704             320         5.23709         1.85079         4.46868         1.02881
            1705             244         2.69261         3.29244        -2.05320        -1.21129
            1705             344         2.18032         2.31312        -1.29361        -1.42640
            1706             295         2.11450         1.80720        -1.43002        -1.25271
            1706             397         2.19472         1.94833        -1.16738        -1.63198
            1707             215         3.56759         2.58464         3.20388         1.73233
            1707             323         2.76617         2.61547         1.99190         1.89368
            1708             356         1.69581         4.38438     556.890E-03         3.72753
            1708             387         1.57529         4.71420     450.579E-03         4.07667
            1709             126         3.08434         2.90726         3.05155         1.67248
            1709             326         2.03622         3.36726         1.57339         2.12626
            1710             226         4.01252         3.57903         3.23464         3.00584
            1710             349         3.10062         3.05985         2.49026         1.97682
            1711             228         3.46088         3.46088         2.75974         2.75974
            1711             370         3.79270         2.16647         2.98578         1.25532
            1712             329         1.98241         1.56368    -809.588E-03        -1.56368
            1712             347         1.81569         2.02305        -1.15889        -1.31204
            1713             576         2.47701         2.12224        -1.22283    -868.061E-03
            1713             582         2.25099         2.41779        -1.26020    -693.671E-03
            1714             260         2.18145         2.98298         1.14856         2.15567
            1714             326         2.03622         3.36726         1.57339         2.12626
            1715             365         2.31573         5.04107        -1.76843        -4.75050
            1715             437         3.22851         2.64695        -2.91722        -2.06466
            1716             115     960.316E-03     937.200E-03    -747.875E-03    -459.563E-03
            1716             219         1.28732         1.08082    -550.882E-03    -969.141E-03
            1717             330         3.03367         1.22239         2.24328     297.735E-03
            1717             331         2.17698         1.99405         1.66664     566.929E-03
            1718             331         2.17698         1.99405         1.66664     566.929E-03
            1718             337         2.55318         1.87806         1.44694     232.862E-03
            1719             253         1.54322         1.77182    -956.852E-03        -1.18545
            1719             329         1.98241         1.56368    -809.588E-03        -1.56368
            1720             132         1.43049         2.00828    -996.715E-03        -1.57451
            1720             329         1.98241         1.56368    -809.588E-03        -1.56368
            1721             132         1.43049         2.00828    -996.715E-03        -1.57451
            1721             232         1.73032         1.89672    -821.864E-03        -1.63039
            1722             272         1.85881         2.31683         1.07653    -722.467E-03
            1722             353         2.33750         2.01703     174.897E-03    -79.8585E-03
            1723             221         2.32981         1.94409         2.32981     586.794E-03
            1723             331         2.17698         1.99405         1.66664     566.929E-03
            1724             119         1.72456         2.00831         1.01325    -304.817E-03
            1724             272         1.85881         2.31683         1.07653    -722.467E-03
            1725             119         1.72456         2.00831         1.01325    -304.817E-03
            1725             332         2.28133         2.26813    -139.399E-03    -966.099E-03
            1726             231         3.25360         3.10835        -1.82432        -1.07504
            1726             332         2.28133         2.26813    -139.399E-03    -966.099E-03
            1727             231         3.25360         3.10835        -1.82432        -1.07504
            1727             361         2.36276         3.10361        -1.71576        -1.42353
            1728             297         2.48640         2.85014         2.09696         1.52235
            1728             338         1.99296         2.44856     580.128E-03         1.92975
            1729             164     574.151E-03     655.551E-03    -317.060E-03    -398.460E-03
            1729             388         1.58162         1.63767    -831.764E-03    -887.817E-03
            1730             269         4.34320         3.26616        -3.82920        -2.75215
            1730             372         5.74405         1.82675        -5.20866    -894.754E-03
            1731             293         1.90059         2.16881         1.37326     735.747E-03
            1731             392         2.34206         1.63853     342.698E-03     829.737E-03
            1732             247         3.42751         3.31829        -3.14354        -2.87436
            1732             307         3.42995         3.44024        -3.04874        -3.11646
            1733             227         2.21125         1.75108     931.237E-03     471.071E-03
            1733             336         2.37032         1.79452     85.4643E-03     888.421E-03
            1734             340         1.67711         4.30461     602.690E-03         3.54150
            1734             356         1.69581         4.38438     556.890E-03         3.72753
            1735             199         3.16077         4.30425        -2.41204        -3.92995
            1735             367         5.07115         3.93701        -3.81479        -2.85603
            1736             128         1.54100         2.20912    -811.136E-03        -1.12305
            1736             262         3.36720         2.56244        -1.32308        -1.89031
            1737             402         1.69734         3.29523         1.15037         1.78713
            1737             442         2.01805         2.24304     829.694E-03         1.05468
            1738             317         4.54178         5.34840        -3.17375        -4.99825
            1738             343         4.31402         3.62426        -3.47839        -2.88020
            1739             199         3.16077         4.30425        -2.41204        -3.92995
            1739             367         5.07115         3.93701        -3.81479        -2.85603
            1740             227         2.21125         1.75108     931.237E-03     471.071E-03
            1740             353         2.33750         2.01703     174.897E-03    -79.8585E-03
            1741             346         2.24602         1.66786        -1.47548        -1.07415
            1741             347         1.81569         2.02305        -1.15889        -1.31204
            1742             415         2.68420         3.21061         1.11483         2.57000
            1742             418         2.11966         3.18766     706.474E-03         2.70360
            1743             503         2.00599         1.84388    -769.554E-03        -1.06174
            1743             537         2.30688         1.73837    -918.725E-03        -1.55200
            1744             264         3.65098         3.39477         2.70739         2.76857
            1744             384         2.82467         3.40208         1.41782         2.88353
            1745             312         4.75562         2.74073        -4.39961        -2.30750
            1745             414         4.84864         1.88082        -4.24221        -1.66204
            1746             261         1.54126         1.63813    -919.482E-03        -1.01635
            1746             390         1.76626         1.79990        -1.03429    -729.609E-03
            1747             266         2.43061         5.04727         1.48379         4.45527
            1747             340         1.67711         4.30461     602.690E-03         3.54150
            1748             258         1.82929         1.94746        -1.51294        -1.13424
            1748             395         1.87854         2.06718        -1.43339    -987.007E-03
            1749             203         3.37561         4.75760        -2.61823        -4.15313
            1749             450         4.57265         2.84626        -3.96512        -1.82659
            1750             281         3.39350         3.73877         2.29025         3.39399
            1750             282         4.12832         2.97463         3.80342         1.73486
            1751             289         2.57714         3.40844         2.51340         1.86223
            1751             405         3.16101         1.92363         2.17770     990.731E-03
            1752             243         3.67224         5.34044        -3.10472        -5.01426
            1752             342         2.75150         4.31775        -2.14122        -4.01555
            1753             388         1.58162         1.63767    -831.764E-03    -887.817E-03
            1753             477         1.77375         1.65304    -807.364E-03    -745.829E-03
            1754             302         3.58070         2.58841         3.45196         1.14787
            1754             303         3.74060         2.52271         3.31322         1.63630
            1755             354         2.47292         2.29160     255.318E-03         2.22629
            1755             460         1.92555         2.59079    -539.571E-03         2.14977
            1756             304         3.23820         5.98687        -2.84830        -5.83830
            1756             348         4.38692         4.00718        -3.63617        -2.67911
            1757             326         2.03622         3.36726         1.57339         2.12626
            1757             417         2.08985         2.89157         1.13490         1.93662
            1758             164     574.151E-03     655.551E-03    -317.060E-03    -398.460E-03
            1758             291         1.06221         1.03538    -499.916E-03    -725.635E-03
            1759             253         1.54322         1.77182    -956.852E-03        -1.18545
            1759             369         1.81624         1.96633        -1.04136        -1.19145
            1760             309         3.35099         3.56646        -2.57707        -3.03974
            1760             351         4.00592         2.48155        -3.23715        -1.46547
            1761             345         2.63008         2.57397        -1.56823    -657.347E-03
            1761             380         2.47340         1.76955        -1.08491     274.710E-03
            1762             444         4.25113         1.32267        -3.76812    -839.653E-03
            1762             534         3.28567         1.11126        -2.75812    -399.797E-03
            1763             404         3.67796         1.63336         3.13783     258.378E-03
            1763             474         2.61166         1.59500         1.57344     410.306E-03
            1764             281         3.39350         3.73877         2.29025         3.39399
            1764             363         3.60575         2.53699         2.65692         1.86152
            1765             253         1.54322         1.77182    -956.852E-03        -1.18545
            1765             379         2.00714         1.61627    -911.506E-03        -1.05882
            1766             252         4.61945         2.59073        -3.93663        -2.27132
            1766             352         2.37158         3.61769        -1.13098        -3.56255
            1767             252         4.61945         2.59073        -3.93663        -2.27132
            1767             333         3.86947         3.87756        -3.11233        -3.12042
            1768             285         2.36598         1.50530    -420.815E-03     876.104E-03
            1768             380         2.47340         1.76955        -1.08491     274.710E-03
            1769             559         2.97235         3.35240    -442.637E-03        -2.66346
            1769             607         2.16199         3.32869        -1.15700    -896.204E-03
            1770             293         1.90059         2.16881         1.37326     735.747E-03
            1770             393         2.21504         1.78474         1.12007     689.772E-03
            1771             262         3.36720         2.56244        -1.32308        -1.89031
            1771             361         2.36276         3.10361        -1.71576        -1.42353
            1772             239         2.04057         2.13820        -1.10517        -1.76282
            1772             346         2.24602         1.66786        -1.47548        -1.07415
            1773             321         3.23771         6.42084        -2.49129        -5.99355
            1773             416         2.85527         4.45250        -2.39050        -4.29961
            1774             260         2.18145         2.98298         1.14856         2.15567
            1774             354         2.47292         2.29160     255.318E-03         2.22629
            1775             231         3.25360         3.10835        -1.82432        -1.07504
            1775             422         2.64232         2.57324        -1.65773    -860.778E-03
            1776             370         3.79270         2.16647         2.98578         1.25532
            1776             383         3.30396         2.77779         2.43924         2.00045
            1777             344         2.18032         2.31312        -1.29361        -1.42640
            1777             452         1.49394         1.65564    -913.542E-03        -1.07524
            1778             128         1.54100         2.20912    -811.136E-03        -1.12305
            1778             357         2.15855         2.51710        -2.14874    -904.197E-03
            1779             371         3.39837         3.84360        -2.69867        -2.80918
            1779             453         4.00312         2.95312        -3.49804        -1.37739
            1780             380         2.47340         1.76955        -1.08491     274.710E-03
            1780             476         2.36829         1.79947    -981.073E-03    -763.391E-03
            1781             250         2.54511         2.30790        -1.50587        -1.88445
            1781             374         3.15117         2.05966        -2.20885        -1.11734
            1782             253         1.54322         1.77182    -956.852E-03        -1.18545
            1782             379         2.00714         1.61627    -911.506E-03        -1.05882
            1783             322         3.16348         5.28920        -2.40784        -5.11084
            1783             416         2.85527         4.45250        -2.39050        -4.29961
            1784             343         4.31402         3.62426        -3.47839        -2.88020
            1784             416         2.85527         4.45250        -2.39050        -4.29961
            1785             390         1.76626         1.79990        -1.03429    -729.609E-03
            1785             511         1.99269         1.95522        -1.08705    -512.049E-03
            1786             469         2.16646         1.95691        -1.11407    -904.524E-03
            1786             470         1.86555         1.94710    -817.680E-03    -899.232E-03
            1787             206         4.02748         4.66325        -3.23707        -4.28083
            1787             372         5.74405         1.82675        -5.20866    -894.754E-03
            1788             231         3.25360         3.10835        -1.82432        -1.07504
            1788             361         2.36276         3.10361        -1.71576        -1.42353
            1789             317         4.54178         5.34840        -3.17375        -4.99825
            1789             371         3.39837         3.84360        -2.69867        -2.80918
            1790             353         2.33750         2.01703     174.897E-03    -79.8585E-03
            1790             434         2.15607         2.51104    -634.043E-03    -279.070E-03
            1791             318         3.35439         4.63949        -2.69175        -4.42389
            1791             409         4.94262         1.88118        -4.58800        -1.52656
            1792             264         3.65098         3.39477         2.70739         2.76857
            1792             319         4.53693         2.85725         3.34291         2.15404
            1793             279         3.32183         3.84484         2.22606         3.60682
            1793             366         2.98356         2.97416         2.24977         1.94505
            1794             362         2.89865         3.19913        -2.52753        -2.84195
            1794             385         3.22459         3.27685        -2.76733        -2.96069
            1795             323         2.76617         2.61547         1.99190         1.89368
            1795             417         2.08985         2.89157         1.13490         1.93662
            1796             340         1.67711         4.30461     602.690E-03         3.54150
            1796             424         1.13668         3.84248    -112.253E-03         2.98568
            1797             325         4.16819         3.08183        -2.78389        -2.53717
            1797             371         3.39837         3.84360        -2.69867        -2.80918
            1798             315         4.21274         2.83300         3.86728         1.95035
            1798             320         5.23709         1.85079         4.46868         1.02881
            1799             472         4.60263     888.215E-03        -4.28537    -377.572E-03
            1799             534         3.28567         1.11126        -2.75812    -399.797E-03
            1800             467         3.07625         1.95992         2.02901     912.680E-03
            1800             512         3.12498         1.37018         1.47648    -126.044E-03
            1801             265         3.01821         2.64617         2.62364         1.29047
            1801             402         1.69734         3.29523         1.15037         1.78713
            1802             347         1.81569         2.02305        -1.15889        -1.31204
            1802             507         2.28824         1.96786        -1.25295    -932.577E-03
            1803             289         2.57714         3.40844         2.51340         1.86223
            1803             300         3.27430         2.57214         2.88480         1.26531
            1804             594         2.79397         2.12172    -646.980E-03    -866.202E-03
            1804             608         2.54599         1.76442    -449.441E-03        -1.04393
            1805             486         3.10561         1.40359         1.95428     961.747E-03
            1805             515         3.27235         1.57224         2.61463     491.549E-03
            1806             389         2.05583         1.99400    -396.700E-03     691.487E-03
            1806             392         2.34206         1.63853     342.698E-03     829.737E-03
            1807             369         1.81624         1.96633        -1.04136        -1.19145
            1807             469         2.16646         1.95691        -1.11407    -904.524E-03
            1808             394         2.35662         1.55235     477.456E-03         1.51561
            1808             398         2.56808         1.63110     596.867E-03         1.55833
            1809             292         2.62186         1.93713        -1.49677        -1.63150
            1809             295         2.11450         1.80720        -1.43002        -1.25271
            1810             296         1.84343         3.07437         1.39215         1.86848
            1810             398         2.56808         1.63110     596.867E-03         1.55833
            1811             280         2.71509         4.65915         2.05726         4.00132
            1811             339         3.23252         2.78167         2.02865         2.28598
            1812             271         3.65427         3.29137        -3.31588        -2.37908
            1812             407         2.97466         3.12049        -2.16734        -2.43123
            1813             320         5.23709         1.85079         4.46868         1.02881
            1813             375         2.75500         3.09168         1.84552         1.97925
            1814             259         1.05876     936.471E-03    -680.636E-03    -534.195E-03
            1814             376         1.60382         1.58609        -1.01046    -678.532E-03
            1815             429         4.01508         2.52517         3.64216         1.02613
            1815             495         2.68474         2.33469         1.22385         1.05899
            1816             434         2.15607         2.51104    -634.043E-03    -279.070E-03
            1816             526         2.55163         1.88745    -167.515E-03    -940.943E-03
            1817             314         4.57351         2.87302        -4.18193        -2.21623
            1817             450         4.57265         2.84626        -3.96512        -1.82659
            1818             269         4.34320         3.26616        -3.82920        -2.75215
            1818             496         2.57824         3.61296        -2.14625        -2.94407
            1819             475         2.83203         2.26365        -1.10724        -1.43939
            1819             476         2.36829         1.79947    -981.073E-03    -763.391E-03
            1820             293         1.90059         2.16881         1.37326     735.747E-03
            1820             392         2.34206         1.63853     342.698E-03     829.737E-03
            1821             577         2.29113         2.58236    -168.918E-03     667.029E-03
            1821             605         2.81576         2.56957    -715.348E-03    -587.064E-03
            1822             366         2.98356         2.97416         2.24977         1.94505
            1822             381         2.64468         3.28195         1.53392         2.62762
            1823             305         3.27484         4.10393         2.45830         3.07935
            1823             381         2.64468         3.28195         1.53392         2.62762
            1824             409         4.94262         1.88118        -4.58800        -1.52656
            1824             414         4.84864         1.88082        -4.24221        -1.66204
            1825             235         3.51916         4.37874         3.03159         3.48939
            1825             306         3.88380         3.88909         3.34458         2.77964
            1826             474         2.61166         1.59500         1.57344     410.306E-03
            1826             513         2.50869         2.02711         1.98215     518.549E-03
            1827             366         2.98356         2.97416         2.24977         1.94505
            1827             383         3.30396         2.77779         2.43924         2.00045
            1828             420         1.32733         1.22815    -809.989E-03    -670.040E-03
            1828             436         1.96669         1.91928    -958.973E-03    -964.217E-03
            1829             315         4.21274         2.83300         3.86728         1.95035
            1829             319         4.53693         2.85725         3.34291         2.15404
            1830             315         4.21274         2.83300         3.86728         1.95035
            1830             384         2.82467         3.40208         1.41782         2.88353
            1831             490         3.47902         1.60217        -2.83852        -1.20221
            1831             498         2.81707         1.70290        -1.91118    -983.621E-03
            1832             302         3.58070         2.58841         3.45196         1.14787
            1832             405         3.16101         1.92363         2.17770     990.731E-03
            1833             277         3.02904         3.69065         2.17896         2.63411
            1833             386         3.87400         1.99196         3.05832     785.707E-03
            1834             228         3.46088         3.46088         2.75974         2.75974
            1834             277         3.02904         3.69065         2.17896         2.63411
            1835             228         3.46088         3.46088         2.75974         2.75974
            1835             386         3.87400         1.99196         3.05832     785.707E-03
            1836             371         3.39837         3.84360        -2.69867        -2.80918
            1836             412         3.27154         3.23561        -1.81588        -2.73053
            1837             432         1.77320         1.89316    -748.959E-03    -868.920E-03
            1837             519         1.77714         2.16611    -859.380E-03    -805.609E-03
            1838             292         2.62186         1.93713        -1.49677        -1.63150
            1838             391         2.47128         2.59839        -1.65182        -1.55218
            1839             448         1.92602         2.63645     322.249E-03     826.527E-03
            1839             504         2.23378         2.54323    -830.647E-03         1.17781
            1840             380         2.47340         1.76955        -1.08491     274.710E-03
            1840             389         2.05583         1.99400    -396.700E-03     691.487E-03
            1841             229         1.91601         1.90070     147.146E-03         1.32240
            1841             389         2.05583         1.99400    -396.700E-03     691.487E-03
            1842             392         2.34206         1.63853     342.698E-03     829.737E-03
            1842             471         2.58332         1.71709     868.604E-03     2.36707E-03
            1843             300         3.27430         2.57214         2.88480         1.26531
            1843             402         1.69734         3.29523         1.15037         1.78713
            1844             265         3.01821         2.64617         2.62364         1.29047
            1844             300         3.27430         2.57214         2.88480         1.26531
            1845             266         2.43061         5.04727         1.48379         4.45527
            1845             411         1.67339         4.53267     383.206E-03         4.02453
            1846             400         3.03686         2.59922        -1.53786        -2.04305
            1846             401         3.39275         2.94597        -2.83963        -1.37674
            1847             373         1.95629         1.77263    -832.980E-03        -1.22790
            1847             395         1.87854         2.06718        -1.43339    -987.007E-03
            1848             393         2.21504         1.78474         1.12007     689.772E-03
            1848             394         2.35662         1.55235     477.456E-03         1.51561
            1849             286         1.95169         2.52448     697.496E-03         2.14952
            1849             394         2.35662         1.55235     477.456E-03         1.51561
            1850             438         1.85667         1.93073    -807.737E-03    -881.792E-03
            1850             514         2.10570         1.83308    -694.452E-03    -905.872E-03
            1851             317         4.54178         5.34840        -3.17375        -4.99825
            1851             439         5.31919         2.16350        -5.31919    -356.565E-03
            1852             346         2.24602         1.66786        -1.47548        -1.07415
            1852             378         2.46728         2.05805        -2.08833    -738.342E-03
            1853             258         1.82929         1.94746        -1.51294        -1.13424
            1853             397         2.19472         1.94833        -1.16738        -1.63198
            1854             435         1.98077         3.08933     871.489E-03         1.98005
            1854             491         2.26771         2.93263     735.483E-03         1.82295
            1855             370         3.79270         2.16647         2.98578         1.25532
            1855             461         3.92435         1.15978         3.12424    -166.408E-03
            1856             317         4.54178         5.34840        -3.17375        -4.99825
            1856             371         3.39837         3.84360        -2.69867        -2.80918
            1857             297         2.48640         2.85014         2.09696         1.52235
            1857             399         1.42920         3.42817     332.907E-03         2.43731
            1858             265         3.01821         2.64617         2.62364         1.29047
            1858             297         2.48640         2.85014         2.09696         1.52235
            1859             301         3.35107         3.94820         3.08175         3.30522
            1859             403         2.39200         3.59381         1.46917         3.12040
            1860             298         2.62702         2.76261        -1.34151        -2.41994
            1860             400         3.03686         2.59922        -1.53786        -2.04305
            1861             298         2.62702         2.76261        -1.34151        -2.41994
            1861             391         2.47128         2.59839        -1.65182        -1.55218
            1862             299         3.48641         3.59920        -2.59803        -2.51204
            1862             350         3.93916         3.53676        -3.93916        -1.27136
            1863             299         3.48641         3.59920        -2.59803        -2.51204
            1863             401         3.39275         2.94597        -2.83963        -1.37674
            1864             378         2.46728         2.05805        -2.08833    -738.342E-03
            1864             451         2.65610         2.04261        -1.63369        -1.06308
            1865             492         3.60149         2.66072        -1.79718        -2.11023
            1865             508         3.19671         3.20695        -1.94289        -1.79161
            1866             475         2.83203         2.26365        -1.10724        -1.43939
            1866             537         2.30688         1.73837    -918.725E-03        -1.55200
            1867             420         1.32733         1.22815    -809.989E-03    -670.040E-03
            1867             432         1.77320         1.89316    -748.959E-03    -868.920E-03
            1868             552         2.10291         2.46883    -746.162E-03        -1.33100
            1868             553         1.96580         2.46263    -295.683E-03        -1.29664
            1869             303         3.74060         2.52271         3.31322         1.63630
            1869             404         3.67796         1.63336         3.13783     258.378E-03
            1870             536         2.26424         2.30434        -1.68677        -1.46897
            1870             603         1.99689         3.23509        -1.10342        -2.62230
            1871             247         3.42751         3.31829        -3.14354        -2.87436
            1871             406         3.44490         2.46201        -2.81170        -2.33906
            1872             390         1.76626         1.79990        -1.03429    -729.609E-03
            1872             438         1.85667         1.93073    -807.737E-03    -881.792E-03
            1873             333         3.86947         3.87756        -3.11233        -3.12042
            1873             426         2.16723         3.57683        -1.63063        -2.88340
            1874             254         4.25447         3.11484        -3.87909        -2.75551
            1874             426         2.16723         3.57683        -1.63063        -2.88340
            1875             254         4.25447         3.11484        -3.87909        -2.75551
            1875             406         3.44490         2.46201        -2.81170        -2.33906
            1876             408         3.80602         2.11761         2.73806         1.82469
            1876             429         4.01508         2.52517         3.64216         1.02613
            1877             374         3.15117         2.05966        -2.20885        -1.11734
            1877             463         3.64052         1.81386        -1.92438        -1.29499
            1878             308         5.03613         2.24231         4.23849         1.64394
            1878             408         3.80602         2.11761         2.73806         1.82469
            1879             308         5.03613         2.24231         4.23849         1.64394
            1879             363         3.60575         2.53699         2.65692         1.86152
            1880             396         2.39372         1.82202    -899.014E-03        -1.82202
            1880             397         2.19472         1.94833        -1.16738        -1.63198
            1881             335         3.15810         2.77864        -3.10989        -2.14816
            1881             485         1.49386         3.42648    -593.837E-03        -3.38201
            1882             403         2.39200         3.59381         1.46917         3.12040
            1882             410         1.24929         4.91046     404.001E-03         4.35919
            1883             310         3.30483         4.09164         2.64105         3.19979
            1883             410         1.24929         4.91046     404.001E-03         4.35919
            1884             246         3.44868         3.49654        -2.71230        -3.14244
            1884             256         4.55217         2.14607        -4.00545        -1.57280
            1885             383         3.30396         2.77779         2.43924         2.00045
            1885             461         3.92435         1.15978         3.12424    -166.408E-03
            1886             321         3.23771         6.42084        -2.49129        -5.99355
            1886             322         3.16348         5.28920        -2.40784        -5.11084
            1887             501         1.05140         3.78658    -64.3808E-03        -3.36971
            1887             568     930.682E-03         4.14890     385.529E-03        -3.83794
            1888             343         4.31402         3.62426        -3.47839        -2.88020
            1888             439         5.31919         2.16350        -5.31919    -356.565E-03
            1889             269         4.34320         3.26616        -3.82920        -2.75215
            1889             444         4.25113         1.32267        -3.76812    -839.653E-03
            1890             349         3.10062         3.05985         2.49026         1.97682
            1890             425         3.26739         1.39185         2.42621     180.511E-03
            1891             360         2.96255         2.83876         1.42487         2.19041
            1891             415         2.68420         3.21061         1.11483         2.57000
            1892             257         1.66413         4.47485     602.091E-03         4.08271
            1892             415         2.68420         3.21061         1.11483         2.57000
            1893             273         2.36185         3.32644         1.70459         2.60344
            1893             415         2.68420         3.21061         1.11483         2.57000
            1894             203         3.37561         4.75760        -2.61823        -4.15313
            1894             314         4.57351         2.87302        -4.18193        -2.21623
            1895             392         2.34206         1.63853     342.698E-03     829.737E-03
            1895             468         2.18284         1.88133     165.898E-03    -114.719E-03
            1896             115     960.316E-03     937.200E-03    -747.875E-03    -459.563E-03
            1896             420         1.32733         1.22815    -809.989E-03    -670.040E-03
            1897             327         1.36673         1.59403    -995.292E-03    -645.637E-03
            1897             432         1.77320         1.89316    -748.959E-03    -868.920E-03
            1898             267         2.81688         2.63757        -1.65801        -2.16891
            1898             419         3.26018         2.69049        -2.24103        -1.67134
            1899             412         3.27154         3.23561        -1.81588        -2.73053
            1899             419         3.26018         2.69049        -2.24103        -1.67134
            1900             115     960.316E-03     937.200E-03    -747.875E-03    -459.563E-03
            1900             327         1.36673         1.59403    -995.292E-03    -645.637E-03
            1901             260         2.18145         2.98298         1.14856         2.15567
            1901             421         2.59928         1.92997     795.905E-03         1.22980
            1902             230         2.69503         2.18896         2.14657     838.695E-03
            1902             260         2.18145         2.98298         1.14856         2.15567
            1903             230         2.69503         2.18896         2.14657     838.695E-03
            1903             421         2.59928         1.92997     795.905E-03         1.22980
            1904             426         2.16723         3.57683        -1.63063        -2.88340
            1904             568     930.682E-03         4.14890     385.529E-03        -3.83794
            1905             306         3.88380         3.88909         3.34458         2.77964
            1905             429         4.01508         2.52517         3.64216         1.02613
            1906             450         4.57265         2.84626        -3.96512        -1.82659
            1906             531         1.83324         3.19730        -1.32601        -2.54295
            1907             348         4.38692         4.00718        -3.63617        -2.67911
            1907             456         3.27829         3.92995        -2.22360        -2.87526
            1908             339         3.23252         2.78167         2.02865         2.28598
            1908             425         3.26739         1.39185         2.42621     180.511E-03
            1909             270         3.65920         3.17900        -3.06158        -2.74207
            1909             445         3.85371         1.98912        -3.10792        -1.53193
            1910             424         1.13668         3.84248    -112.253E-03         2.98568
            1910             497     918.019E-03         4.01329    -524.532E-03         3.61921
            1911             410         1.24929         4.91046     404.001E-03         4.35919
            1911             522         1.24166         3.75347    -111.630E-03         3.28746
            1912             375         2.75500         3.09168         1.84552         1.97925
            1912             488         1.64983         3.48106     692.594E-03         1.72631
            1913             348         4.38692         4.00718        -3.63617        -2.67911
            1913             465         3.06090         4.03771        -2.43816        -2.40505
            1914             521         3.29786         3.29481        -2.73795        -2.40367
            1914             525         4.15489         2.70298        -4.15489    -470.242E-03
            1915             423         2.52053         2.18477         1.38771         1.78096
            1915             466         3.03718         3.02074         2.17205         2.26612
            1916             164     574.151E-03     655.551E-03    -317.060E-03    -398.460E-03
            1916             452         1.49394         1.65564    -913.542E-03        -1.07524
            1917             437         3.22851         2.64695        -2.91722        -2.06466
            1917             506         3.69553         2.60242        -2.82307    -890.696E-03
            1918             464         1.14278         3.52603    -140.986E-03         3.37510
            1918             524         1.75623         2.84981     908.535E-03         2.30482
            1919             334         4.25857         2.06234        -3.71403        -1.16100
            1919             428         2.34167         2.69164        -1.06720        -1.73844
            1920             353         2.33750         2.01703     174.897E-03    -79.8585E-03
            1920             434         2.15607         2.51104    -634.043E-03    -279.070E-03
            1921             453         4.00312         2.95312        -3.49804        -1.37739
            1921             525         4.15489         2.70298        -4.15489    -470.242E-03
            1922             402         1.69734         3.29523         1.15037         1.78713
            1922             483         1.42023         3.10440    -582.247E-03         2.30259
            1923             400         3.03686         2.59922        -1.53786        -2.04305
            1923             449         2.56058         2.43274        -1.97181    -797.766E-03
            1924             440         2.52887         2.16143    -892.863E-03        -1.61579
            1924             449         2.56058         2.43274        -1.97181    -797.766E-03
            1925             353         2.33750         2.01703     174.897E-03    -79.8585E-03
            1925             459         2.32454         2.03672    -564.716E-03     433.045E-03
            1926             385         3.22459         3.27685        -2.76733        -2.96069
            1926             455         2.48790         2.58465        -2.18959        -2.16307
            1927             417         2.08985         2.89157         1.13490         1.93662
            1927             441         1.85184         3.19084     313.797E-03         1.69264
            1928             427         2.56301         3.38547        -2.01199        -2.66749
            1928             443         3.11799         3.36407        -2.42498        -2.67106
            1929             437         3.22851         2.64695        -2.91722        -2.06466
            1929             603         1.99689         3.23509        -1.10342        -2.62230
            1930             368         2.23111         2.79467         1.72111         1.36735
            1930             442         2.01805         2.24304     829.694E-03         1.05468
            1931             270         3.65920         3.17900        -3.06158        -2.74207
            1931             450         4.57265         2.84626        -3.96512        -1.82659
            1932             480         2.67656         2.16552     97.4594E-03         1.54833
            1932             483         1.42023         3.10440    -582.247E-03         2.30259
            1933             454         2.08251         2.43135    -638.312E-03         1.89124
            1933             504         2.23378         2.54323    -830.647E-03         1.17781
            1934             428         2.34167         2.69164        -1.06720        -1.73844
            1934             567         2.56556         2.22023    -791.225E-03    -21.1284E-03
            1935             366         2.98356         2.97416         2.24977         1.94505
            1935             515         3.27235         1.57224         2.61463     491.549E-03
            1936             541         2.93894         1.65948    -106.835E-03         1.09935
            1936             554         2.18378         2.11726     353.150E-03    -238.611E-03
            1937             421         2.59928         1.92997     795.905E-03         1.22980
            1937             448         1.92602         2.63645     322.249E-03     826.527E-03
            1938             441         1.85184         3.19084     313.797E-03         1.69264
            1938             460         1.92555         2.59079    -539.571E-03         2.14977
            1939             506         3.69553         2.60242        -2.82307    -890.696E-03
            1939             556         2.69486         2.73823        -2.11560     35.0735E-03
            1940             354         2.47292         2.29160     255.318E-03         2.22629
            1940             454         2.08251         2.43135    -638.312E-03         1.89124
            1941             342         2.75150         4.31775        -2.14122        -4.01555
            1941             385         3.22459         3.27685        -2.76733        -2.96069
            1942             377         2.27216         2.36172    -559.434E-03    -469.873E-03
            1942             422         2.64232         2.57324        -1.65773    -860.778E-03
            1943             437         3.22851         2.64695        -2.91722        -2.06466
            1943             456         3.27829         3.92995        -2.22360        -2.87526
            1944             335         3.15810         2.77864        -3.10989        -2.14816
            1944             362         2.89865         3.19913        -2.52753        -2.84195
            1945             364         4.07722         3.29366        -3.52746        -2.35702
            1945             367         5.07115         3.93701        -3.81479        -2.85603
            1946             423         2.52053         2.18477         1.38771         1.78096
            1946             524         1.75623         2.84981     908.535E-03         2.30482
            1947             473         3.25399         2.49453        -2.62468        -1.88793
            1947             490         3.47902         1.60217        -2.83852        -1.20221
            1948             480         2.67656         2.16552     97.4594E-03         1.54833
            1948             481         2.34320         1.37134     388.969E-03     984.075E-03
            1949             398         2.56808         1.63110     596.867E-03         1.55833
            1949             481         2.34320         1.37134     388.969E-03     984.075E-03
            1950             400         3.03686         2.59922        -1.53786        -2.04305
            1950             401         3.39275         2.94597        -2.83963        -1.37674
            1951             445         3.85371         1.98912        -3.10792        -1.53193
            1951             450         4.57265         2.84626        -3.96512        -1.82659
            1952             358         1.65540         1.88307    -915.152E-03    -797.093E-03
            1952             519         1.77714         2.16611    -859.380E-03    -805.609E-03
            1953             372         5.74405         1.82675        -5.20866    -894.754E-03
            1953             472         4.60263     888.215E-03        -4.28537    -377.572E-03
            1954             274         5.03917         2.60922        -4.83582        -2.14776
            1954             472         4.60263     888.215E-03        -4.28537    -377.572E-03
            1955             397         2.19472         1.94833        -1.16738        -1.63198
            1955             446         2.07858         2.46155    -976.645E-03        -1.35962
            1956             395         1.87854         2.06718        -1.43339    -987.007E-03
            1956             397         2.19472         1.94833        -1.16738        -1.63198
            1957             428         2.34167         2.69164        -1.06720        -1.73844
            1957             501         1.05140         3.78658    -64.3808E-03        -3.36971
            1958             348         4.38692         4.00718        -3.63617        -2.67911
            1958             456         3.27829         3.92995        -2.22360        -2.87526
            1959             519         1.77714         2.16611    -859.380E-03    -805.609E-03
            1959             561         1.81055         2.20807    -664.456E-03        -1.03810
            1960             356         1.69581         4.38438     556.890E-03         3.72753
            1960             497     918.019E-03         4.01329    -524.532E-03         3.61921
            1961             374         3.15117         2.05966        -2.20885        -1.11734
            1961             378         2.46728         2.05805        -2.08833    -738.342E-03
            1962             345         2.63008         2.57397        -1.56823    -657.347E-03
            1962             475         2.83203         2.26365        -1.10724        -1.43939
            1963             336         2.37032         1.79452     85.4643E-03     888.421E-03
            1963             510         2.76019         1.53668    -341.499E-03     894.557E-03
            1964             594         2.79397         2.12172    -646.980E-03    -866.202E-03
            1964             610         2.16710         2.77264        -2.02997     205.551E-03
            1965             344         2.18032         2.31312        -1.29361        -1.42640
            1965             458         2.65765         1.95469        -1.15401        -1.17765
            1966             373         1.95629         1.77263    -832.980E-03        -1.22790
            1966             438         1.85667         1.93073    -807.737E-03    -881.792E-03
            1967             410         1.24929         4.91046     404.001E-03         4.35919
            1967             464         1.14278         3.52603    -140.986E-03         3.37510
            1968             334         4.25857         2.06234        -3.71403        -1.16100
            1968             427         2.56301         3.38547        -2.01199        -2.66749
            1969             421         2.59928         1.92997     795.905E-03         1.22980
            1969             454         2.08251         2.43135    -638.312E-03         1.89124
            1970             421         2.59928         1.92997     795.905E-03         1.22980
            1970             448         1.92602         2.63645     322.249E-03     826.527E-03
            1971             460         1.92555         2.59079    -539.571E-03         2.14977
            1971             509         2.30217         2.18162    -544.376E-03     627.032E-03
            1972             439         5.31919         2.16350        -5.31919    -356.565E-03
            1972             453         4.00312         2.95312        -3.49804        -1.37739
            1973             392         2.34206         1.63853     342.698E-03     829.737E-03
            1973             468         2.18284         1.88133     165.898E-03    -114.719E-03
            1974             405         3.16101         1.92363         2.17770     990.731E-03
            1974             474         2.61166         1.59500         1.57344     410.306E-03
            1975             431         2.35523         2.84775        -1.52162        -1.15604
            1975             520         2.11083         2.50061    -925.492E-03        -1.09522
            1976             390         1.76626         1.79990        -1.03429    -729.609E-03
            1976             457         1.76465         1.73975    -831.572E-03    -581.264E-03
            1977             359         1.17805         1.32269    -555.771E-03    -818.848E-03
            1977             457         1.76465         1.73975    -831.572E-03    -581.264E-03
            1978             389         2.05583         1.99400    -396.700E-03     691.487E-03
            1978             478         2.45356         1.66602        -1.09139     240.935E-03
            1979             358         1.65540         1.88307    -915.152E-03    -797.093E-03
            1979             470         1.86555         1.94710    -817.680E-03    -899.232E-03
            1980             626         2.12919         1.61316    -657.495E-03    -713.553E-03
            1980             639         1.82182         1.92313     409.657E-03        -1.09925
            1981             510         2.76019         1.53668    -341.499E-03     894.557E-03
            1981             598         2.45939         1.85803    -251.648E-03    -168.344E-03
            1982             470         1.86555         1.94710    -817.680E-03    -899.232E-03
            1982             499         2.38007         1.85245        -1.12514    -597.512E-03
            1983             468         2.18284         1.88133     165.898E-03    -114.719E-03
            1983             527         2.04531         2.26074    -114.869E-03    -222.420E-03
            1984             374         3.15117         2.05966        -2.20885        -1.11734
            1984             451         2.65610         2.04261        -1.63369        -1.06308
            1985             441         1.85184         3.19084     313.797E-03         1.69264
            1985             505         3.06208         2.43727     714.647E-03     89.8370E-03
            1986             556         2.69486         2.73823        -2.11560     35.0735E-03
            1986             612         2.03896         2.55984    -259.003E-03     262.763E-03
            1987             422         2.64232         2.57324        -1.65773    -860.778E-03
            1987             493         2.07338         2.86808    -803.376E-03    -986.572E-03
            1988             377         2.27216         2.36172    -559.434E-03    -469.873E-03
            1988             493         2.07338         2.86808    -803.376E-03    -986.572E-03
            1989             355         3.94771         3.82345        -2.23118        -3.46062
            1989             465         3.06090         4.03771        -2.43816        -2.40505
            1990             430         2.63226         3.38781        -1.07883        -2.83469
            1990             465         3.06090         4.03771        -2.43816        -2.40505
            1991             458         2.65765         1.95469        -1.15401        -1.17765
            1991             475         2.83203         2.26365        -1.10724        -1.43939
            1992             281         3.39350         3.73877         2.29025         3.39399
            1992             466         3.03718         3.02074         2.17205         2.26612
            1993             403         2.39200         3.59381         1.46917         3.12040
            1993             466         3.03718         3.02074         2.17205         2.26612
            1994             568     930.682E-03         4.14890     385.529E-03        -3.83794
            1994             613         2.02512         2.53428     21.8800E-03        -1.11977
            1995             370         3.79270         2.16647         2.98578         1.25532
            1995             386         3.87400         1.99196         3.05832     785.707E-03
            1996             370         3.79270         2.16647         2.98578         1.25532
            1996             467         3.07625         1.95992         2.02901     912.680E-03
            1997             382         4.79029         1.54752        -4.53200        -1.19657
            1997             490         3.47902         1.60217        -2.83852        -1.20221
            1998             373         1.95629         1.77263    -832.980E-03        -1.22790
            1998             479         2.18726         1.97934    -520.192E-03        -1.51042
            1999             446         2.07858         2.46155    -976.645E-03        -1.35962
            1999             479         2.18726         1.97934    -520.192E-03        -1.51042
            2000             500         1.80695         2.81907        -1.29753        -1.59674
            2000             549         1.47887         2.87139    -326.156E-03        -2.50250
            2001             448         1.92602         2.63645     322.249E-03     826.527E-03
            2001             510         2.76019         1.53668    -341.499E-03     894.557E-03
            2002             393         2.21504         1.78474         1.12007     689.772E-03
            2002             471         2.58332         1.71709     868.604E-03     2.36707E-03
            2003             368         2.23111         2.79467         1.72111         1.36735
            2003             484         2.74897         1.45800         1.68799     313.677E-03
            2004             550         2.16719         2.50075    -474.600E-03        -1.30748
            2004             552         2.10291         2.46883    -746.162E-03        -1.33100
            2005             440         2.52887         2.16143    -892.863E-03        -1.61579
            2005             573         2.76010         1.91682    -946.571E-03    -945.470E-03
            2006             366         2.98356         2.97416         2.24977         1.94505
            2006             462         3.69968         1.35786         3.09485    -16.8300E-03
            2007             585         2.50660         1.90487        -1.21154        -1.11857
            2007             614         2.60561         1.95016    -850.523E-03    -558.469E-03
            2008             382         4.79029         1.54752        -4.53200        -1.19657
            2008             414         4.84864         1.88082        -4.24221        -1.66204
            2009             414         4.84864         1.88082        -4.24221        -1.66204
            2009             490         3.47902         1.60217        -2.83852        -1.20221
            2010             419         3.26018         2.69049        -2.24103        -1.67134
            2010             463         3.64052         1.81386        -1.92438        -1.29499
            2011             336         2.37032         1.79452     85.4643E-03     888.421E-03
            2011             459         2.32454         2.03672    -564.716E-03     433.045E-03
            2012             432         1.77320         1.89316    -748.959E-03    -868.920E-03
            2012             552         2.10291         2.46883    -746.162E-03        -1.33100
            2013             413         1.64049         4.87244     2.50138E-03         4.34210
            2013             491         2.26771         2.93263     735.483E-03         1.82295
            2014             425         3.26739         1.39185         2.42621     180.511E-03
            2014             575         2.73178         2.03152         2.46073        -1.87649
            2015             291         1.06221         1.03538    -499.916E-03    -725.635E-03
            2015             477         1.77375         1.65304    -807.364E-03    -745.829E-03
            2016             291         1.06221         1.03538    -499.916E-03    -725.635E-03
            2016             388         1.58162         1.63767    -831.764E-03    -887.817E-03
            2017             389         2.05583         1.99400    -396.700E-03     691.487E-03
            2017             468         2.18284         1.88133     165.898E-03    -114.719E-03
            2018             401         3.39275         2.94597        -2.83963        -1.37674
            2018             482         2.87744         2.30959        -1.76159        -1.19374
            2019             358         1.65540         1.88307    -915.152E-03    -797.093E-03
            2019             470         1.86555         1.94710    -817.680E-03    -899.232E-03
            2020             400         3.03686         2.59922        -1.53786        -2.04305
            2020             482         2.87744         2.30959        -1.76159        -1.19374
            2021             399         1.42920         3.42817     332.907E-03         2.43731
            2021             480         2.67656         2.16552     97.4594E-03         1.54833
            2022             530         2.77679         1.52082         1.63169    -585.232E-03
            2022             574         2.82946         1.41469         1.59030    -181.765E-03
            2023             368         2.23111         2.79467         1.72111         1.36735
            2023             442         2.01805         2.24304     829.694E-03         1.05468
            2024             494         3.14650         1.84170         2.50776     46.1827E-03
            2024             575         2.73178         2.03152         2.46073        -1.87649
            2025             457         1.76465         1.73975    -831.572E-03    -581.264E-03
            2025             511         1.99269         1.95522        -1.08705    -512.049E-03
            2026             565         1.90387         1.89401    -963.981E-03    -460.181E-03
            2026             631         2.24628         1.72390    -785.459E-03    -559.123E-03
            2027             575         2.73178         2.03152         2.46073        -1.87649
            2027             613         2.02512         2.53428     21.8800E-03        -1.11977
            2028             474         2.61166         1.59500         1.57344     410.306E-03
            2028             484         2.74897         1.45800         1.68799     313.677E-03
            2029             335         3.15810         2.77864        -3.10989        -2.14816
            2029             447         1.95717         2.88427        -1.90999        -2.21072
            2030             581         2.14384         1.73343        -1.00368    -332.366E-03
            2030             616         1.75751         2.10952    -541.508E-03    -806.940E-03
            2031             411         1.67339         4.53267     383.206E-03         4.02453
            2031             424         1.13668         3.84248    -112.253E-03         2.98568
            2032             600         2.03805         1.71882         1.30139     455.412E-03
            2032             601         1.83881         2.09591    -6.42217E-03         1.39060
            2033             381         2.64468         3.28195         1.53392         2.62762
            2033             486         3.10561         1.40359         1.95428     961.747E-03
            2034             425         3.26739         1.39185         2.42621     180.511E-03
            2034             486         3.10561         1.40359         1.95428     961.747E-03
            2035             415         2.68420         3.21061         1.11483         2.57000
            2035             487         2.05679         2.94478    -500.364E-03         2.65099
            2036             415         2.68420         3.21061         1.11483         2.57000
            2036             441         1.85184         3.19084     313.797E-03         1.69264
            2037             416         2.85527         4.45250        -2.39050        -4.29961
            2037             489         4.22581         2.06146        -3.78565        -1.12842
            2038             409         4.94262         1.88118        -4.58800        -1.52656
            2038             416         2.85527         4.45250        -2.39050        -4.29961
            2039             409         4.94262         1.88118        -4.58800        -1.52656
            2039             489         4.22581         2.06146        -3.78565        -1.12842
            2040             360         2.96255         2.83876         1.42487         2.19041
            2040             487         2.05679         2.94478    -500.364E-03         2.65099
            2041             437         3.22851         2.64695        -2.91722        -2.06466
            2041             456         3.27829         3.92995        -2.22360        -2.87526
            2042             419         3.26018         2.69049        -2.24103        -1.67134
            2042             492         3.60149         2.66072        -1.79718        -2.11023
            2043             384         2.82467         3.40208         1.41782         2.88353
            2043             491         2.26771         2.93263     735.483E-03         1.82295
            2044             384         2.82467         3.40208         1.41782         2.88353
            2044             488         1.64983         3.48106     692.594E-03         1.72631
            2045             453         4.00312         2.95312        -3.49804        -1.37739
            2045             492         3.60149         2.66072        -1.79718        -2.11023
            2046             519         1.77714         2.16611    -859.380E-03    -805.609E-03
            2046             565         1.90387         1.89401    -963.981E-03    -460.181E-03
            2047             497     918.019E-03         4.01329    -524.532E-03         3.61921
            2047             562         2.15766         2.38842     139.262E-03     891.220E-03
            2048             566         2.40322         2.08793    -961.802E-03     352.102E-03
            2048             641         3.00946         1.56994    -614.882E-03    -571.110E-03
            2049             357         2.15855         2.51710        -2.14874    -904.197E-03
            2049             569         2.07532         2.26942        -1.36764        -1.13845
            2050             537         2.30688         1.73837    -918.725E-03        -1.55200
            2050             579         1.67195         2.34495    -931.834E-03        -1.10843
            2051             349         3.10062         3.05985         2.49026         1.97682
            2051             494         3.14650         1.84170         2.50776     46.1827E-03
            2052             487         2.05679         2.94478    -500.364E-03         2.65099
            2052             505         3.06208         2.43727     714.647E-03     89.8370E-03
            2053             487         2.05679         2.94478    -500.364E-03         2.65099
            2053             580         2.63716         2.05250     714.335E-03    -295.885E-03
            2054             356         1.69581         4.38438     556.890E-03         3.72753
            2054             435         1.98077         3.08933     871.489E-03         1.98005
            2055             580         2.63716         2.05250     714.335E-03    -295.885E-03
            2055             622         2.07612         2.83109     527.933E-03        -1.24529
            2056             488         1.64983         3.48106     692.594E-03         1.72631
            2056             533         1.24266         3.36903    -549.165E-03         2.71538
            2057             459         2.32454         2.03672    -564.716E-03     433.045E-03
            2057             510         2.76019         1.53668    -341.499E-03     894.557E-03
            2058             533         1.24266         3.36903    -549.165E-03         2.71538
            2058             577         2.29113         2.58236    -168.918E-03     667.029E-03
            2059             520         2.11083         2.50061    -925.492E-03        -1.09522
            2059             569         2.07532         2.26942        -1.36764        -1.13845
            2060             588         3.25553         2.36340    -944.115E-03        -1.43140
            2060             597         3.27351         2.65280        -2.57370    -488.228E-03
            2061             546         2.79800         2.09337        -1.55027    -845.641E-03
            2061             573         2.76010         1.91682    -946.571E-03    -945.470E-03
            2062             467         3.07625         1.95992         2.02901     912.680E-03
            2062             513         2.50869         2.02711         1.98215     518.549E-03
            2063             582         2.25099         2.41779        -1.26020    -693.671E-03
            2063             629         2.26521         2.57829        -1.35995    -80.6696E-03
            2064             416         2.85527         4.45250        -2.39050        -4.29961
            2064             521         3.29786         3.29481        -2.73795        -2.40367
            2065             579         1.67195         2.34495    -931.834E-03        -1.10843
            2065             616         1.75751         2.10952    -541.508E-03    -806.940E-03
            2066             411         1.67339         4.53267     383.206E-03         4.02453
            2066             522         1.24166         3.75347    -111.630E-03         3.28746
            2067             347         1.81569         2.02305        -1.15889        -1.31204
            2067             433         1.86296         2.29642        -1.36617    -766.116E-03
            2068             388         1.58162         1.63767    -831.764E-03    -887.817E-03
            2068             503         2.00599         1.84388    -769.554E-03        -1.06174
            2069             458         2.65765         1.95469        -1.15401        -1.17765
            2069             503         2.00599         1.84388    -769.554E-03        -1.06174
            2070             440         2.52887         2.16143    -892.863E-03        -1.61579
            2070             446         2.07858         2.46155    -976.645E-03        -1.35962
            2071             404         3.67796         1.63336         3.13783     258.378E-03
            2071             513         2.50869         2.02711         1.98215     518.549E-03
            2072             433         1.86296         2.29642        -1.36617    -766.116E-03
            2072             576         2.47701         2.12224        -1.22283    -868.061E-03
            2073             454         2.08251         2.43135    -638.312E-03         1.89124
            2073             509         2.30217         2.18162    -544.376E-03     627.032E-03
            2074             360         2.96255         2.83876         1.42487         2.19041
            2074             533         1.24266         3.36903    -549.165E-03         2.71538
            2075             501         1.05140         3.78658    -64.3808E-03        -3.36971
            2075             606         1.47360         2.96505     912.261E-03        -2.38329
            2076             456         3.27829         3.92995        -2.22360        -2.87526
            2076             506         3.69553         2.60242        -2.82307    -890.696E-03
            2077             434         2.15607         2.51104    -634.043E-03    -279.070E-03
            2077             526         2.55163         1.88745    -167.515E-03    -940.943E-03
            2078             511         1.99269         1.95522        -1.08705    -512.049E-03
            2078             615         1.97752         1.74351    -892.533E-03    -422.520E-03
            2079             435         1.98077         3.08933     871.489E-03         1.98005
            2079             562         2.15766         2.38842     139.262E-03     891.220E-03
            2080             544         2.65915         2.32814        -1.55583        -1.22483
            2080             610         2.16710         2.77264        -2.02997     205.551E-03
            2081             517         3.40158         2.14064    -824.888E-03        -2.14064
            2081             588         3.25553         2.36340    -944.115E-03        -1.43140
            2082             435         1.98077         3.08933     871.489E-03         1.98005
            2082             589         2.57520         2.16180         1.84079    -733.800E-03
            2083             447         1.95717         2.88427        -1.90999        -2.21072
            2083             455         2.48790         2.58465        -2.18959        -2.16307
            2084             532         2.86079         2.66295        -1.87459    -552.066E-03
            2084             595         2.12737         2.70765     702.077E-03        -1.99047
            2085             539         2.81967         1.39664     562.433E-03     768.303E-03
            2085             541         2.93894         1.65948    -106.835E-03         1.09935
            2086             536         2.26424         2.30434        -1.68677        -1.46897
            2086             603         1.99689         3.23509        -1.10342        -2.62230
            2087             528         2.64854         1.74853         1.44467    -98.4942E-03
            2087             557         2.52021         1.94576    -768.159E-03     364.410E-03
            2088             461         3.92435         1.15978         3.12424    -166.408E-03
            2088             512         3.12498         1.37018         1.47648    -126.044E-03
            2089             486         3.10561         1.40359         1.95428     961.747E-03
            2089             530         2.77679         1.52082         1.63169    -585.232E-03
            2090             431         2.35523         2.84775        -1.52162        -1.15604
            2090             569         2.07532         2.26942        -1.36764        -1.13845
            2091             516         1.98184         1.95745        -1.33617    -430.600E-03
            2091             538         2.55579         1.66464        -1.17885     216.823E-03
            2092             468         2.18284         1.88133     165.898E-03    -114.719E-03
            2092             538         2.55579         1.66464        -1.17885     216.823E-03
            2093             474         2.61166         1.59500         1.57344     410.306E-03
            2093             572     807.148E-03         3.37936    -315.032E-03         1.62857
            2094             478         2.45356         1.66602        -1.09139     240.935E-03
            2094             516         1.98184         1.95745        -1.33617    -430.600E-03
            2095             463         3.64052         1.81386        -1.92438        -1.29499
            2095             517         3.40158         2.14064    -824.888E-03        -2.14064
            2096             508         3.19671         3.20695        -1.94289        -1.79161
            2096             517         3.40158         2.14064    -824.888E-03        -2.14064
            2097             446         2.07858         2.46155    -976.645E-03        -1.35962
            2097             573         2.76010         1.91682    -946.571E-03    -945.470E-03
            2098             447         1.95717         2.88427        -1.90999        -2.21072
            2098             536         2.26424         2.30434        -1.68677        -1.46897
            2099             500         1.80695         2.81907        -1.29753        -1.59674
            2099             613         2.02512         2.53428     21.8800E-03        -1.11977
            2100             500         1.80695         2.81907        -1.29753        -1.59674
            2100             604         2.12133         2.06139    -898.388E-03    -503.980E-03
            2101             502         3.19245         3.48437        -1.98640        -1.74517
            2101             559         2.97235         3.35240    -442.637E-03        -2.66346
            2102             436         1.96669         1.91928    -958.973E-03    -964.217E-03
            2102             520         2.11083         2.50061    -925.492E-03        -1.09522
            2103             427         2.56301         3.38547        -2.01199        -2.66749
            2103             523         2.16980         2.89036        -1.35235        -2.02070
            2104             576         2.47701         2.12224        -1.22283    -868.061E-03
            2104             629         2.26521         2.57829        -1.35995    -80.6696E-03
            2105             334         4.25857         2.06234        -3.71403        -1.16100
            2105             523         2.16980         2.89036        -1.35235        -2.02070
            2106             444         4.25113         1.32267        -3.76812    -839.653E-03
            2106             578         3.03533         1.44272        -2.80443    -715.679E-03
            2107             444         4.25113         1.32267        -3.76812    -839.653E-03
            2107             472         4.60263     888.215E-03        -4.28537    -377.572E-03
            2108             557         2.52021         1.94576    -768.159E-03     364.410E-03
            2108             609         3.00654         2.01607        -2.29369    -24.7155E-03
            2109             343         4.31402         3.62426        -3.47839        -2.88020
            2109             525         4.15489         2.70298        -4.15489    -470.242E-03
            2110             583         2.08440         2.32786         1.05948     400.369E-03
            2110             612         2.03896         2.55984    -259.003E-03     262.763E-03
            2111             470         1.86555         1.94710    -817.680E-03    -899.232E-03
            2111             519         1.77714         2.16611    -859.380E-03    -805.609E-03
            2112             435         1.98077         3.08933     871.489E-03         1.98005
            2112             562         2.15766         2.38842     139.262E-03     891.220E-03
            2113             542         2.21069         2.97310     246.918E-03     96.6032E-03
            2113             577         2.29113         2.58236    -168.918E-03     667.029E-03
            2114             443         3.11799         3.36407        -2.42498        -2.67106
            2114             586         3.33873         2.16495        -2.75175        -1.32002
            2115             433         1.86296         2.29642        -1.36617    -766.116E-03
            2115             585         2.50660         1.90487        -1.21154        -1.11857
            2116             520         2.11083         2.50061    -925.492E-03        -1.09522
            2116             552         2.10291         2.46883    -746.162E-03        -1.33100
            2117             476         2.36829         1.79947    -981.073E-03    -763.391E-03
            2117             537         2.30688         1.73837    -918.725E-03        -1.55200
            2118             518         2.01770         1.75690         1.14899    -325.602E-03
            2118             529         1.48693         3.03819    -159.187E-03     791.655E-03
            2119             461         3.92435         1.15978         3.12424    -166.408E-03
            2119             528         2.64854         1.74853         1.44467    -98.4942E-03
            2120             500         1.80695         2.81907        -1.29753        -1.59674
            2120             549         1.47887         2.87139    -326.156E-03        -2.50250
            2121             547         2.44630         2.59353        -1.85471    -672.167E-03
            2121             594         2.79397         2.12172    -646.980E-03    -866.202E-03
            2122             427         2.56301         3.38547        -2.01199        -2.66749
            2122             563         2.35723         2.87327        -1.57937        -2.24243
            2123             491         2.26771         2.93263     735.483E-03         1.82295
            2123             542         2.21069         2.97310     246.918E-03     96.6032E-03
            2124             442         2.01805         2.24304     829.694E-03         1.05468
            2124             529         1.48693         3.03819    -159.187E-03     791.655E-03
            2125             442         2.01805         2.24304     829.694E-03         1.05468
            2125             518         2.01770         1.75690         1.14899    -325.602E-03
            2126             576         2.47701         2.12224        -1.22283    -868.061E-03
            2126             582         2.25099         2.41779        -1.26020    -693.671E-03
            2127             557         2.52021         1.94576    -768.159E-03     364.410E-03
            2127             599         1.90163         2.37999    -467.391E-03        -1.21284
            2128             537         2.30688         1.73837    -918.725E-03        -1.55200
            2128             579         1.67195         2.34495    -931.834E-03        -1.10843
            2129             469         2.16646         1.95691        -1.11407    -904.524E-03
            2129             582         2.25099         2.41779        -1.26020    -693.671E-03
            2130             451         2.65610         2.04261        -1.63369        -1.06308
            2130             535         2.98659         1.76292    -797.897E-03        -1.62656
            2131             517         3.40158         2.14064    -824.888E-03        -2.14064
            2131             535         2.98659         1.76292    -797.897E-03        -1.62656
            2132             555         2.64263         2.24920     215.103E-03    -179.580E-03
            2132             567         2.56556         2.22023    -791.225E-03    -21.1284E-03
            2133             428         2.34167         2.69164        -1.06720        -1.73844
            2133             523         2.16980         2.89036        -1.35235        -2.02070
            2134             573         2.76010         1.91682    -946.571E-03    -945.470E-03
            2134             621         2.28425         2.10927    -297.817E-03    -974.090E-03
            2135             540         2.56454         2.13708    -918.855E-03        -1.11097
            2135             573         2.76010         1.91682    -946.571E-03    -945.470E-03
            2136             476         2.36829         1.79947    -981.073E-03    -763.391E-03
            2136             516         1.98184         1.95745        -1.33617    -430.600E-03
            2137             468         2.18284         1.88133     165.898E-03    -114.719E-03
            2137             527         2.04531         2.26074    -114.869E-03    -222.420E-03
            2138             393         2.21504         1.78474         1.12007     689.772E-03
            2138             539         2.81967         1.39664     562.433E-03     768.303E-03
            2139             394         2.35662         1.55235     477.456E-03         1.51561
            2139             539         2.81967         1.39664     562.433E-03     768.303E-03
            2140             481         2.34320         1.37134     388.969E-03     984.075E-03
            2140             539         2.81967         1.39664     562.433E-03     768.303E-03
            2141             553         1.96580         2.46263    -295.683E-03        -1.29664
            2141             561         1.81055         2.20807    -664.456E-03        -1.03810
            2142             479         2.18726         1.97934    -520.192E-03        -1.51042
            2142             540         2.56454         2.13708    -918.855E-03        -1.11097
            2143             479         2.18726         1.97934    -520.192E-03        -1.51042
            2143             514         2.10570         1.83308    -694.452E-03    -905.872E-03
            2144             484         2.74897         1.45800         1.68799     313.677E-03
            2144             545         2.05372         1.68709     153.407E-03     842.322E-03
            2145             484         2.74897         1.45800         1.68799     313.677E-03
            2145             518         2.01770         1.75690         1.14899    -325.602E-03
            2146             506         3.69553         2.60242        -2.82307    -890.696E-03
            2146             609         3.00654         2.01607        -2.29369    -24.7155E-03
            2147             457         1.76465         1.73975    -831.572E-03    -581.264E-03
            2147             543         1.93067         2.00381    -731.747E-03    -672.010E-03
            2148             503         2.00599         1.84388    -769.554E-03        -1.06174
            2148             543         1.93067         2.00381    -731.747E-03    -672.010E-03
            2149             449         2.56058         2.43274        -1.97181    -797.766E-03
            2149             547         2.44630         2.59353        -1.85471    -672.167E-03
            2150             447         1.95717         2.88427        -1.90999        -2.21072
            2150             549         1.47887         2.87139    -326.156E-03        -2.50250
            2151             541         2.93894         1.65948    -106.835E-03         1.09935
            2151             548         2.11975         2.86196        -1.11936         1.60561
            2152             449         2.56058         2.43274        -1.97181    -797.766E-03
            2152             482         2.87744         2.30959        -1.76159        -1.19374
            2153             482         2.87744         2.30959        -1.76159        -1.19374
            2153             547         2.44630         2.59353        -1.85471    -672.167E-03
            2154             449         2.56058         2.43274        -1.97181    -797.766E-03
            2154             546         2.79800         2.09337        -1.55027    -845.641E-03
            2155             523         2.16980         2.89036        -1.35235        -2.02070
            2155             567         2.56556         2.22023    -791.225E-03    -21.1284E-03
            2156             483         1.42023         3.10440    -582.247E-03         2.30259
            2156             548         2.11975         2.86196        -1.11936         1.60561
            2157             483         1.42023         3.10440    -582.247E-03         2.30259
            2157             529         1.48693         3.03819    -159.187E-03     791.655E-03
            2158             589         2.57520         2.16180         1.84079    -733.800E-03
            2158             595         2.12737         2.70765     702.077E-03        -1.99047
            2159             425         3.26739         1.39185         2.42621     180.511E-03
            2159             530         2.77679         1.52082         1.63169    -585.232E-03
            2160             493         2.07338         2.86808    -803.376E-03    -986.572E-03
            2160             550         2.16719         2.50075    -474.600E-03        -1.30748
            2161             520         2.11083         2.50061    -925.492E-03        -1.09522
            2161             550         2.16719         2.50075    -474.600E-03        -1.30748
            2162             470         1.86555         1.94710    -817.680E-03    -899.232E-03
            2162             565         1.90387         1.89401    -963.981E-03    -460.181E-03
            2163             473         3.25399         2.49453        -2.62468        -1.88793
            2163             489         4.22581         2.06146        -3.78565        -1.12842
            2164             473         3.25399         2.49453        -2.62468        -1.88793
            2164             551         2.49250         3.10886        -1.09660        -2.07209
            2165             555         2.64263         2.24920     215.103E-03    -179.580E-03
            2165             575         2.73178         2.03152         2.46073        -1.87649
            2166             434         2.15607         2.51104    -634.043E-03    -279.070E-03
            2166             553         1.96580         2.46263    -295.683E-03        -1.29664
            2167             550         2.16719         2.50075    -474.600E-03        -1.30748
            2167             553         1.96580         2.46263    -295.683E-03        -1.29664
            2168             471         2.58332         1.71709     868.604E-03     2.36707E-03
            2168             527         2.04531         2.26074    -114.869E-03    -222.420E-03
            2169             471         2.58332         1.71709     868.604E-03     2.36707E-03
            2169             554         2.18378         2.11726     353.150E-03    -238.611E-03
            2170             557         2.52021         1.94576    -768.159E-03     364.410E-03
            2170             624         2.27714         2.65154    -366.317E-03    -20.5090E-03
            2171             598         2.45939         1.85803    -251.648E-03    -168.344E-03
            2171             627         1.97165         2.00654    -987.457E-03    -349.899E-03
            2172             546         2.79800         2.09337        -1.55027    -845.641E-03
            2172             608         2.54599         1.76442    -449.441E-03        -1.04393
            2173             526         2.55163         1.88745    -167.515E-03    -940.943E-03
            2173             561         1.81055         2.20807    -664.456E-03        -1.03810
            2174             592         2.07558         1.97095    -740.027E-03    -458.194E-03
            2174             615         1.97752         1.74351    -892.533E-03    -422.520E-03
            2175             511         1.99269         1.95522        -1.08705    -512.049E-03
            2175             571         1.82812         1.50746        -1.10455    -382.194E-03
            2176             536         2.26424         2.30434        -1.68677        -1.46897
            2176             599         1.90163         2.37999    -467.391E-03        -1.21284
            2177             515         3.27235         1.57224         2.61463     491.549E-03
            2177             574         2.82946         1.41469         1.59030    -181.765E-03
            2178             534         3.28567         1.11126        -2.75812    -399.797E-03
            2178             578         3.03533         1.44272        -2.80443    -715.679E-03
            2179             430         2.63226         3.38781        -1.07883        -2.83469
            2179             559         2.97235         3.35240    -442.637E-03        -2.66346
            2180             430         2.63226         3.38781        -1.07883        -2.83469
            2180             544         2.65915         2.32814        -1.55583        -1.22483
            2181             623         1.37047         2.85702    -156.567E-03        -1.93791
            2181             645         1.39599         2.29029     723.474E-03        -1.89202
            2182             581         2.14384         1.73343        -1.00368    -332.366E-03
            2182             592         2.07558         1.97095    -740.027E-03    -458.194E-03
            2183             526         2.55163         1.88745    -167.515E-03    -940.943E-03
            2183             598         2.45939         1.85803    -251.648E-03    -168.344E-03
            2184             438         1.85667         1.93073    -807.737E-03    -881.792E-03
            2184             514         2.10570         1.83308    -694.452E-03    -905.872E-03
            2185             438         1.85667         1.93073    -807.737E-03    -881.792E-03
            2185             571         1.82812         1.50746        -1.10455    -382.194E-03
            2186             498         2.81707         1.70290        -1.91118    -983.621E-03
            2186             570         2.21904         2.18648    -530.649E-03    -627.768E-03
            2187             426         2.16723         3.57683        -1.63063        -2.88340
            2187             500         1.80695         2.81907        -1.29753        -1.59674
            2188             521         3.29786         3.29481        -2.73795        -2.40367
            2188             564         3.86735         2.13079        -2.94477    -894.274E-03
            2189             551         2.49250         3.10886        -1.09660        -2.07209
            2189             564         3.86735         2.13079        -2.94477    -894.274E-03
            2190             592         2.07558         1.97095    -740.027E-03    -458.194E-03
            2190             642         2.03475         1.55280    -904.154E-03    -353.554E-03
            2191             504         2.23378         2.54323    -830.647E-03         1.17781
            2191             566         2.40322         2.08793    -961.802E-03     352.102E-03
            2192             535         2.98659         1.76292    -797.897E-03        -1.62656
            2192             585         2.50660         1.90487        -1.21154        -1.11857
            2193             579         1.67195         2.34495    -931.834E-03        -1.10843
            2193             581         2.14384         1.73343        -1.00368    -332.366E-03
            2194             536         2.26424         2.30434        -1.68677        -1.46897
            2194             609         3.00654         2.01607        -2.29369    -24.7155E-03
            2195             583         2.08440         2.32786         1.05948     400.369E-03
            2195             624         2.27714         2.65154    -366.317E-03    -20.5090E-03
            2196             433         1.86296         2.29642        -1.36617    -766.116E-03
            2196             507         2.28824         1.96786        -1.25295    -932.577E-03
            2197             376         1.60382         1.58609        -1.01046    -678.532E-03
            2197             569         2.07532         2.26942        -1.36764        -1.13845
            2198             498         2.81707         1.70290        -1.91118    -983.621E-03
            2198             534         3.28567         1.11126        -2.75812    -399.797E-03
            2199             543         1.93067         2.00381    -731.747E-03    -672.010E-03
            2199             579         1.67195         2.34495    -931.834E-03        -1.10843
            2200             599         1.90163         2.37999    -467.391E-03        -1.21284
            2200             620         2.25880         2.08938     987.254E-03        -1.03629
            2201             527         2.04531         2.26074    -114.869E-03    -222.420E-03
            2201             625         1.93460         2.25749     139.134E-03    -859.849E-03
            2202             555         2.64263         2.24920     215.103E-03    -179.580E-03
            2202             606         1.47360         2.96505     912.261E-03        -2.38329
            2203             587         2.70459         2.17916     175.710E-03     554.988E-03
            2203             628         3.04523         1.96257     446.688E-03        -1.27686
            2204             560         1.34850         3.28253    -589.552E-03     41.6504E-03
            2204             607         2.16199         3.32869        -1.15700    -896.204E-03
            2205             518         2.01770         1.75690         1.14899    -325.602E-03
            2205             545         2.05372         1.68709     153.407E-03     842.322E-03
            2206             518         2.01770         1.75690         1.14899    -325.602E-03
            2206             591         1.31270         2.65834    -553.751E-03     107.054E-03
            2207             588         3.25553         2.36340    -944.115E-03        -1.43140
            2207             602         3.10908         1.82494    -823.615E-03        -1.46933
            2208             535         2.98659         1.76292    -797.897E-03        -1.62656
            2208             602         3.10908         1.82494    -823.615E-03        -1.46933
            2209             608         2.54599         1.76442    -449.441E-03        -1.04393
            2209             621         2.28425         2.10927    -297.817E-03    -974.090E-03
            2210             462         3.69968         1.35786         3.09485    -16.8300E-03
            2210             574         2.82946         1.41469         1.59030    -181.765E-03
            2211             566         2.40322         2.08793    -961.802E-03     352.102E-03
            2211             614         2.60561         1.95016    -850.523E-03    -558.469E-03
            2212             445         3.85371         1.98912        -3.10792        -1.53193
            2212             586         3.33873         2.16495        -2.75175        -1.32002
            2213             445         3.85371         1.98912        -3.10792        -1.53193
            2213             586         3.33873         2.16495        -2.75175        -1.32002
            2214             533         1.24266         3.36903    -549.165E-03         2.71538
            2214             577         2.29113         2.58236    -168.918E-03     667.029E-03
            2215             505         3.06208         2.43727     714.647E-03     89.8370E-03
            2215             587         2.70459         2.17916     175.710E-03     554.988E-03
            2216             508         3.19671         3.20695        -1.94289        -1.79161
            2216             525         4.15489         2.70298        -4.15489    -470.242E-03
            2217             508         3.19671         3.20695        -1.94289        -1.79161
            2217             597         3.27351         2.65280        -2.57370    -488.228E-03
            2218             570         2.21904         2.18648    -530.649E-03    -627.768E-03
            2218             640         2.67037         1.45827        -2.20092     550.987E-03
            2219             469         2.16646         1.95691        -1.11407    -904.524E-03
            2219             499         2.38007         1.85245        -1.12514    -597.512E-03
            2220             551         2.49250         3.10886        -1.09660        -2.07209
            2220             634         2.64887         2.60206        -1.04298        -1.15499
            2221             609         3.00654         2.01607        -2.29369    -24.7155E-03
            2221             624         2.27714         2.65154    -366.317E-03    -20.5090E-03
            2222             579         1.67195         2.34495    -931.834E-03        -1.10843
            2222             581         2.14384         1.73343        -1.00368    -332.366E-03
            2223             538         2.55579         1.66464        -1.17885     216.823E-03
            2223             581         2.14384         1.73343        -1.00368    -332.366E-03
            2224             513         2.50869         2.02711         1.98215     518.549E-03
            2224             583         2.08440         2.32786         1.05948     400.369E-03
            2225             467         3.07625         1.95992         2.02901     912.680E-03
            2225             513         2.50869         2.02711         1.98215     518.549E-03
            2226             467         3.07625         1.95992         2.02901     912.680E-03
            2226             583         2.08440         2.32786         1.05948     400.369E-03
            2227             565         1.90387         1.89401    -963.981E-03    -460.181E-03
            2227             627         1.97165         2.00654    -987.457E-03    -349.899E-03
            2228             448         1.92602         2.63645     322.249E-03     826.527E-03
            2228             584         2.67666         1.85884    -538.824E-03     769.331E-03
            2229             448         1.92602         2.63645     322.249E-03     826.527E-03
            2229             510         2.76019         1.53668    -341.499E-03     894.557E-03
            2230             594         2.79397         2.12172    -646.980E-03    -866.202E-03
            2230             610         2.16710         2.77264        -2.02997     205.551E-03
            2231             443         3.11799         3.36407        -2.42498        -2.67106
            2231             586         3.33873         2.16495        -2.75175        -1.32002
            2232             597         3.27351         2.65280        -2.57370    -488.228E-03
            2232             634         2.64887         2.60206        -1.04298        -1.15499
            2233             531         1.83324         3.19730        -1.32601        -2.54295
            2233             578         3.03533         1.44272        -2.80443    -715.679E-03
            2234             576         2.47701         2.12224        -1.22283    -868.061E-03
            2234             614         2.60561         1.95016    -850.523E-03    -558.469E-03
            2235             568     930.682E-03         4.14890     385.529E-03        -3.83794
            2235             606         1.47360         2.96505     912.261E-03        -2.38329
            2236             525         4.15489         2.70298        -4.15489    -470.242E-03
            2236             597         3.27351         2.65280        -2.57370    -488.228E-03
            2237             459         2.32454         2.03672    -564.716E-03     433.045E-03
            2237             598         2.45939         1.85803    -251.648E-03    -168.344E-03
            2238             567         2.56556         2.22023    -791.225E-03    -21.1284E-03
            2238             623         1.37047         2.85702    -156.567E-03        -1.93791
            2239             542         2.21069         2.97310     246.918E-03     96.6032E-03
            2239             589         2.57520         2.16180         1.84079    -733.800E-03
            2240             580         2.63716         2.05250     714.335E-03    -295.885E-03
            2240             611         2.97029         2.34087    -902.420E-03    -139.398E-03
            2241             529         1.48693         3.03819    -159.187E-03     791.655E-03
            2241             590         2.55033         2.53126    -669.831E-03     323.453E-03
            2242             529         1.48693         3.03819    -159.187E-03     791.655E-03
            2242             560         1.34850         3.28253    -589.552E-03     41.6504E-03
            2243             490         3.47902         1.60217        -2.83852        -1.20221
            2243             595         2.12737         2.70765     702.077E-03        -1.99047
            2244             527         2.04531         2.26074    -114.869E-03    -222.420E-03
            2244             592         2.07558         1.97095    -740.027E-03    -458.194E-03
            2245             562         2.15766         2.38842     139.262E-03     891.220E-03
            2245             570         2.21904         2.18648    -530.649E-03    -627.768E-03
            2246             548         2.11975         2.86196        -1.11936         1.60561
            2246             593         2.70089         1.90832    -321.912E-03    -64.3599E-03
            2247             548         2.11975         2.86196        -1.11936         1.60561
            2247             590         2.55033         2.53126    -669.831E-03     323.453E-03
            2248             506         3.69553         2.60242        -2.82307    -890.696E-03
            2248             603         1.99689         3.23509        -1.10342        -2.62230
            2249             593         2.70089         1.90832    -321.912E-03    -64.3599E-03
            2249             594         2.79397         2.12172    -646.980E-03    -866.202E-03
            2250             562         2.15766         2.38842     139.262E-03     891.220E-03
            2250             570         2.21904         2.18648    -530.649E-03    -627.768E-03
            2251             562         2.15766         2.38842     139.262E-03     891.220E-03
            2251             595         2.12737         2.70765     702.077E-03        -1.99047
            2252             597         3.27351         2.65280        -2.57370    -488.228E-03
            2252             611         2.97029         2.34087    -902.420E-03    -139.398E-03
            2253             611         2.97029         2.34087    -902.420E-03    -139.398E-03
            2253             634         2.64887         2.60206        -1.04298        -1.15499
            2254             522         1.24166         3.75347    -111.630E-03         3.28746
            2254             601         1.83881         2.09591    -6.42217E-03         1.39060
            2255             495         2.68474         2.33469         1.22385         1.05899
            2255             567         2.56556         2.22023    -791.225E-03    -21.1284E-03
            2256             495         2.68474         2.33469         1.22385         1.05899
            2256             596         2.49350         1.68649         1.72383    -654.985E-03
            2257             577         2.29113         2.58236    -168.918E-03     667.029E-03
            2257             605         2.81576         2.56957    -715.348E-03    -587.064E-03
            2258             561         1.81055         2.20807    -664.456E-03        -1.03810
            2258             627         1.97165         2.00654    -987.457E-03    -349.899E-03
            2259             527         2.04531         2.26074    -114.869E-03    -222.420E-03
            2259             592         2.07558         1.97095    -740.027E-03    -458.194E-03
            2260             509         2.30217         2.18162    -544.376E-03     627.032E-03
            2260             587         2.70459         2.17916     175.710E-03     554.988E-03
            2261             423         2.52053         2.18477         1.38771         1.78096
            2261             596         2.49350         1.68649         1.72383    -654.985E-03
            2262             423         2.52053         2.18477         1.38771         1.78096
            2262             600         2.03805         1.71882         1.30139     455.412E-03
            2263             464         1.14278         3.52603    -140.986E-03         3.37510
            2263             600         2.03805         1.71882         1.30139     455.412E-03
            2264             626         2.12919         1.61316    -657.495E-03    -713.553E-03
            2264             642         2.03475         1.55280    -904.154E-03    -353.554E-03
            2265             592         2.07558         1.97095    -740.027E-03    -458.194E-03
            2265             642         2.03475         1.55280    -904.154E-03    -353.554E-03
            2266             630         2.42676         2.01147    -791.197E-03     365.356E-03
            2266             637         2.48018         1.69615    -441.997E-03    -88.3324E-03
            2267             633         1.71270         2.61421        -1.50532         2.23041
            2267             640         2.67037         1.45827        -2.20092     550.987E-03
            2268             549         1.47887         2.87139    -326.156E-03        -2.50250
            2268             604         2.12133         2.06139    -898.388E-03    -503.980E-03
            2269             583         2.08440         2.32786         1.05948     400.369E-03
            2269             612         2.03896         2.55984    -259.003E-03     262.763E-03
            2270             551         2.49250         3.10886        -1.09660        -2.07209
            2270             605         2.81576         2.56957    -715.348E-03    -587.064E-03
            2271             542         2.21069         2.97310     246.918E-03     96.6032E-03
            2271             605         2.81576         2.56957    -715.348E-03    -587.064E-03
            2272             560         1.34850         3.28253    -589.552E-03     41.6504E-03
            2272             591         1.31270         2.65834    -553.751E-03     107.054E-03
            2273             556         2.69486         2.73823        -2.11560     35.0735E-03
            2273             591         1.31270         2.65834    -553.751E-03     107.054E-03
            2274             556         2.69486         2.73823        -2.11560     35.0735E-03
            2274             607         2.16199         3.32869        -1.15700    -896.204E-03
            2275             577         2.29113         2.58236    -168.918E-03     667.029E-03
            2275             622         2.07612         2.83109     527.933E-03        -1.24529
            2276             596         2.49350         1.68649         1.72383    -654.985E-03
            2276             600         2.03805         1.71882         1.30139     455.412E-03
            2277             530         2.77679         1.52082         1.63169    -585.232E-03
            2277             613         2.02512         2.53428     21.8800E-03        -1.11977
            2278             557         2.52021         1.94576    -768.159E-03     364.410E-03
            2278             599         1.90163         2.37999    -467.391E-03        -1.21284
            2279             560         1.34850         3.28253    -589.552E-03     41.6504E-03
            2279             610         2.16710         2.77264        -2.02997     205.551E-03
            2280             559         2.97235         3.35240    -442.637E-03        -2.66346
            2280             607         2.16199         3.32869        -1.15700    -896.204E-03
            2281             559         2.97235         3.35240    -442.637E-03        -2.66346
            2281             610         2.16710         2.77264        -2.02997     205.551E-03
            2282             563         2.35723         2.87327        -1.57937        -2.24243
            2282             586         3.33873         2.16495        -2.75175        -1.32002
            2283             523         2.16980         2.89036        -1.35235        -2.02070
            2283             623         1.37047         2.85702    -156.567E-03        -1.93791
            2284             620         2.25880         2.08938     987.254E-03        -1.03629
            2284             636         2.26480         1.94685    -118.594E-03     80.3459E-03
            2285             591         1.31270         2.65834    -553.751E-03     107.054E-03
            2285             612         2.03896         2.55984    -259.003E-03     262.763E-03
            2286             572     807.148E-03         3.37936    -315.032E-03         1.62857
            2286             612         2.03896         2.55984    -259.003E-03     262.763E-03
            2287             602         3.10908         1.82494    -823.615E-03        -1.46933
            2287             614         2.60561         1.95016    -850.523E-03    -558.469E-03
            2288             631         2.24628         1.72390    -785.459E-03    -559.123E-03
            2288             637         2.48018         1.69615    -441.997E-03    -88.3324E-03
            2289             617         2.30200         2.15389    -779.864E-03    -631.746E-03
            2289             629         2.26521         2.57829        -1.35995    -80.6696E-03
            2290             499         2.38007         1.85245        -1.12514    -597.512E-03
            2290             582         2.25099         2.41779        -1.26020    -693.671E-03
            2291             511         1.99269         1.95522        -1.08705    -512.049E-03
            2291             616         1.75751         2.10952    -541.508E-03    -806.940E-03
            2292             566         2.40322         2.08793    -961.802E-03     352.102E-03
            2292             630         2.42676         2.01147    -791.197E-03     365.356E-03
            2293             584         2.67666         1.85884    -538.824E-03     769.331E-03
            2293             630         2.42676         2.01147    -791.197E-03     365.356E-03
            2294             567         2.56556         2.22023    -791.225E-03    -21.1284E-03
            2294             638         1.74569         2.10582     242.087E-03    -803.745E-03
            2295             505         3.06208         2.43727     714.647E-03     89.8370E-03
            2295             587         2.70459         2.17916     175.710E-03     554.988E-03
            2296             621         2.28425         2.10927    -297.817E-03    -974.090E-03
            2296             632         2.41571         1.68481     266.815E-03    -464.089E-03
            2297             604         2.12133         2.06139    -898.388E-03    -503.980E-03
            2297             620         2.25880         2.08938     987.254E-03        -1.03629
            2298             509         2.30217         2.18162    -544.376E-03     627.032E-03
            2298             619         1.84813         2.04693     424.518E-03    -762.986E-03
            2299             528         2.64854         1.74853         1.44467    -98.4942E-03
            2299             620         2.25880         2.08938     987.254E-03        -1.03629
            2300             540         2.56454         2.13708    -918.855E-03        -1.11097
            2300             621         2.28425         2.10927    -297.817E-03    -974.090E-03
            2301             623         1.37047         2.85702    -156.567E-03        -1.93791
            2301             643         1.59636         2.51948        -1.00134        -1.56700
            2302             562         2.15766         2.38842     139.262E-03     891.220E-03
            2302             633         1.71270         2.61421        -1.50532         2.23041
            2303             600         2.03805         1.71882         1.30139     455.412E-03
            2303             601         1.83881         2.09591    -6.42217E-03         1.39060
            2304             625         1.93460         2.25749     139.134E-03    -859.849E-03
            2304             626         2.12919         1.61316    -657.495E-03    -713.553E-03
            2305             635         1.86461         1.74302     704.893E-03    -359.764E-03
            2305             644         1.95083         1.87076    -733.151E-03     395.453E-03
            2306             613         2.02512         2.53428     21.8800E-03        -1.11977
            2306             636         2.26480         1.94685    -118.594E-03     80.3459E-03
            2307             633         1.71270         2.61421        -1.50532         2.23041
            2307             644         1.95083         1.87076    -733.151E-03     395.453E-03
            2308             612         2.03896         2.55984    -259.003E-03     262.763E-03
            2308             624         2.27714         2.65154    -366.317E-03    -20.5090E-03
            2309             424         1.13668         3.84248    -112.253E-03         2.98568
            2309             633         1.71270         2.61421        -1.50532         2.23041
            2310             601         1.83881         2.09591    -6.42217E-03         1.39060
            2310             633         1.71270         2.61421        -1.50532         2.23041
            2311             514         2.10570         1.83308    -694.452E-03    -905.872E-03
            2311             626         2.12919         1.61316    -657.495E-03    -713.553E-03
            2312             514         2.10570         1.83308    -694.452E-03    -905.872E-03
            2312             571         1.82812         1.50746        -1.10455    -382.194E-03
            2313             561         1.81055         2.20807    -664.456E-03        -1.03810
            2313             565         1.90387         1.89401    -963.981E-03    -460.181E-03
            2314             602         3.10908         1.82494    -823.615E-03        -1.46933
            2314             628         3.04523         1.96257     446.688E-03        -1.27686
            2315             611         2.97029         2.34087    -902.420E-03    -139.398E-03
            2315             628         3.04523         1.96257     446.688E-03        -1.27686
            2316             505         3.06208         2.43727     714.647E-03     89.8370E-03
            2316             628         3.04523         1.96257     446.688E-03        -1.27686
            2317             614         2.60561         1.95016    -850.523E-03    -558.469E-03
            2317             629         2.26521         2.57829        -1.35995    -80.6696E-03
            2318             596         2.49350         1.68649         1.72383    -654.985E-03
            2318             635         1.86461         1.74302     704.893E-03    -359.764E-03
            2319             534         3.28567         1.11126        -2.75812    -399.797E-03
            2319             640         2.67037         1.45827        -2.20092     550.987E-03
            2320             578         3.03533         1.44272        -2.80443    -715.679E-03
            2320             640         2.67037         1.45827        -2.20092     550.987E-03
            2321             629         2.26521         2.57829        -1.35995    -80.6696E-03
            2321             630         2.42676         2.01147    -791.197E-03     365.356E-03
            2322             617         2.30200         2.15389    -779.864E-03    -631.746E-03
            2322             631         2.24628         1.72390    -785.459E-03    -559.123E-03
            2323             554         2.18378         2.11726     353.150E-03    -238.611E-03
            2323             632         2.41571         1.68481     266.815E-03    -464.089E-03
            2324             593         2.70089         1.90832    -321.912E-03    -64.3599E-03
            2324             632         2.41571         1.68481     266.815E-03    -464.089E-03
            2325             628         3.04523         1.96257     446.688E-03        -1.27686
            2325             641         3.00946         1.56994    -614.882E-03    -571.110E-03
            2326             574         2.82946         1.41469         1.59030    -181.765E-03
            2326             636         2.26480         1.94685    -118.594E-03     80.3459E-03
            2327             551         2.49250         3.10886        -1.09660        -2.07209
            2327             605         2.81576         2.56957    -715.348E-03    -587.064E-03
            2328             605         2.81576         2.56957    -715.348E-03    -587.064E-03
            2328             634         2.64887         2.60206        -1.04298        -1.15499
            2329             635         1.86461         1.74302     704.893E-03    -359.764E-03
            2329             638         1.74569         2.10582     242.087E-03    -803.745E-03
            2330             614         2.60561         1.95016    -850.523E-03    -558.469E-03
            2330             641         3.00946         1.56994    -614.882E-03    -571.110E-03
            2331             604         2.12133         2.06139    -898.388E-03    -503.980E-03
            2331             613         2.02512         2.53428     21.8800E-03        -1.11977
            2332             584         2.67666         1.85884    -538.824E-03     769.331E-03
            2332             637         2.48018         1.69615    -441.997E-03    -88.3324E-03
            2333             584         2.67666         1.85884    -538.824E-03     769.331E-03
            2333             598         2.45939         1.85803    -251.648E-03    -168.344E-03
            2334             627         1.97165         2.00654    -987.457E-03    -349.899E-03
            2334             637         2.48018         1.69615    -441.997E-03    -88.3324E-03
            2335             554         2.18378         2.11726     353.150E-03    -238.611E-03
            2335             625         1.93460         2.25749     139.134E-03    -859.849E-03
            2336             554         2.18378         2.11726     353.150E-03    -238.611E-03
            2336             639         1.82182         1.92313     409.657E-03        -1.09925
            2337             632         2.41571         1.68481     266.815E-03    -464.089E-03
            2337             639         1.82182         1.92313     409.657E-03        -1.09925
            2338             558         1.76980         1.86483    -350.985E-03        -1.02686
            2338             639         1.82182         1.92313     409.657E-03        -1.09925
            2339             638         1.74569         2.10582     242.087E-03    -803.745E-03
            2339             645         1.39599         2.29029     723.474E-03        -1.89202
            2340             635         1.86461         1.74302     704.893E-03    -359.764E-03
            2340             645         1.39599         2.29029     723.474E-03        -1.89202
            2341             619         1.84813         2.04693     424.518E-03    -762.986E-03
            2341             628         3.04523         1.96257     446.688E-03        -1.27686
            2342             571         1.82812         1.50746        -1.10455    -382.194E-03
            2342             626         2.12919         1.61316    -657.495E-03    -713.553E-03
            2343             571         1.82812         1.50746        -1.10455    -382.194E-03
            2343             642         2.03475         1.55280    -904.154E-03    -353.554E-03
            2344             531         1.83324         3.19730        -1.32601        -2.54295
            2344             618         2.37067         1.61310        -1.63257    -569.285E-03
            2345             531         1.83324         3.19730        -1.32601        -2.54295
            2345             643         1.59636         2.51948        -1.00134        -1.56700
            2346             618         2.37067         1.61310        -1.63257    -569.285E-03
            2346             640         2.67037         1.45827        -2.20092     550.987E-03
            2347             644         1.95083         1.87076    -733.151E-03     395.453E-03
            2347             645         1.39599         2.29029     723.474E-03        -1.89202
            2348             643         1.59636         2.51948        -1.00134        -1.56700
            2348             645         1.39599         2.29029     723.474E-03        -1.89202
            2349              81         3.75777         13.8163        -1.44178        -7.66351
            2349              82         2.72685         6.40208        -1.95509        -5.63032
            2350             129         3.10568         3.12068         2.44456         2.60923
            2350             273         2.36185         3.32644         1.70459         2.60344
            2351              96         2.85941         6.00723        -2.28852        -5.65853
            2351             198         3.87506         3.95097        -3.47091        -3.43691
            2352               1     173.860E-03     131.734E-03    -128.401E-03     131.734E-03
            2352               4     117.269E-03     125.803E-03     31.1071E-03     2.52583E-03
            2353              13         1.97816         1.82737         1.97816     318.610E-03
            2353             216         2.21288         1.54474         1.63938     216.861E-03
            2354             309         3.35099         3.56646        -2.57707        -3.03974
            2354             334         4.25857         2.06234        -3.71403        -1.16100
            2355             111         1.18429         1.61126    -866.842E-03        -1.29381
            2355             223         1.42703         1.31322    -880.463E-03        -1.05782
            2356              40     738.825E-03         3.99774         5.57767         3.22526
            2356             123     738.825E-03         3.10267         3.97509         2.96149
            2357             234         3.92359         3.61566         3.26569         2.53891
            2357             248         2.64852         4.63129         1.98096         3.96373
            2358              31         5.82917         3.07776         5.57683         2.11297
            2358             136         4.51683         3.49669         3.88906         2.77870
            2359             118         2.01846         2.17096         2.01846     601.055E-03
            2359             227         2.21125         1.75108     931.237E-03     471.071E-03
            2360              70     855.958E-03     717.941E-03    -363.297E-03    -717.561E-03
            2360              71         1.01950         1.18075    -756.817E-03    -918.075E-03
            2361             190         5.09108         3.45548         4.81521         2.50862
            2361             226         4.01252         3.57903         3.23464         3.00584
            2362               4     117.269E-03     125.803E-03     31.1071E-03     2.52583E-03
            2362             116     614.464E-03     420.065E-03    -437.030E-03    -147.013E-03
            2363              66         2.28753         2.93649        -1.84025     824.277E-03
            2363             117         2.54845         1.97342    -113.189E-03    -963.910E-03
            2364             177         4.72931         4.78697        -3.12371        -4.30586
            2364             288         3.91413         5.87290        -2.64472        -5.15064
            2365             244         2.69261         3.29244        -2.05320        -1.21129
            2365             245         3.29600         3.07526        -2.64435    -981.872E-03
            2366              12         1.67404         1.99540     992.860E-03     184.898E-03
            2366             119         1.72456         2.00831         1.01325    -304.817E-03
            2367             242         3.05121         4.62503        -2.48337        -4.05720
            2367             243         3.67224         5.34044        -3.10472        -5.01426
            2368             107         1.98818         2.62521        -1.17402        -2.62521
            2368             217         2.05869         2.82363    -961.397E-03        -2.82363
            2369              28         5.61399         3.36208         5.07217         2.56900
            2369             139         3.91688         4.22494         3.36021         3.31232
            2370              50         5.81119         2.84552         5.49489         2.05655
            2370             149         3.28962         4.47831         2.46386         4.21215
            2371              16         3.14881         1.82193         3.14881     762.300E-03
            2371             134         2.94069         1.80316         2.94069     471.535E-03
            2372             124         2.61903         2.74352         2.61903         1.37984
            2372             134         2.94069         1.80316         2.94069     471.535E-03
            2373              29         5.77985         3.31576         5.15782         2.63273
            2373             207         5.03514         3.24410         4.73451         2.23669
            2374              18         3.49582         2.55265         3.49582         1.47715
            2374             124         2.61903         2.74352         2.61903         1.37984
            2375              17         3.47818         2.02928         3.47818     956.545E-03
            2375             124         2.61903         2.74352         2.61903         1.37984
            2376             106         1.94455         3.30323        -1.47403        -2.83271
            2376             107         1.98818         2.62521        -1.17402        -2.62521
            2377              19         4.10562         2.32623         4.10562         1.30025
            2377             126         3.08434         2.90726         3.05155         1.67248
            2378             108         1.56837         2.48058        -1.21052        -2.12272
            2378             125         1.60512         2.13753    -871.127E-03        -1.96355
            2379              91         2.96862         5.50082        -2.30238        -5.29513
            2379              92         2.89720         5.43964        -2.19287        -5.22952
            2380              39         1.81897         3.24385         5.68249         2.25965
            2380             123         1.81897         1.11543         3.97509         2.96149
            2381             210         4.99270         8.49101        -2.91489        -9.64356
            2381             317         4.54178         5.34840        -3.17375        -4.99825
            2382             357         2.15855         2.51710        -2.14874    -904.197E-03
            2382             361         2.36276         3.10361        -1.71576        -1.42353
            2383              85         2.79965         5.64743        -2.26806        -5.35303
            2383             147         3.78983         4.11137        -3.49867        -3.57948
            2384             160         1.01196     851.311E-03    -425.553E-03    -764.696E-03
            2384             287         1.46947         1.39510    -883.890E-03    -748.772E-03
            2385              45         2.46514         3.50673         5.35078         2.96452
            2385             190         5.09108         3.45548         4.81521         2.50862
            2386             146         4.86936         3.09033         4.21936         2.41610
            2386             190         5.09108         3.45548         4.81521         2.50862
            2387             193         3.45603         3.74670        -3.03645        -3.15007
            2387             251         3.71175         3.34818        -2.77023        -3.13379
            2388              58         4.51669         1.97316         3.96500         1.42147
            2388             153         3.49527         2.15035         2.57763         1.76091
            2389              59         4.18061         1.71633         3.12422         1.71633
            2389             153         3.49527         2.15035         2.57763         1.76091
            2390              75         1.92096         2.46173        -1.14241        -2.46173
            2390              76         1.94876         3.10330        -1.50167        -2.65621
            2391              69     554.580E-03     387.568E-03    -114.004E-03    -275.479E-03
            2391              70     855.958E-03     717.941E-03    -363.297E-03    -717.561E-03
            2392              47         5.78996         3.11830         5.02728         2.69073
            2392             187         3.99480         3.80199         3.40104         3.00993
            2393              52         5.33311         2.59705         4.95612         1.80162
            2393             151         3.49463         3.37421         2.71509         2.78697
            2394             201         5.42820         2.54280         5.12072         1.54187
            2394             207         5.03514         3.24410         4.73451         2.23669
            2395             366         2.98356         2.97416         2.24977         1.94505
            2395             462         3.69968         1.35786         3.09485    -16.8300E-03
            2396             188         4.27333         4.19846         3.88367         3.34819
            2396             248         2.64852         4.63129         1.98096         3.96373
            2397             288         3.91413         5.87290        -2.64472        -5.15064
            2397             355         3.94771         3.82345        -2.23118        -3.46062
            2398             176         4.38978         4.10803         3.61659         3.53956
            2398             283         4.19749         3.99177         3.26857         3.15670
            2399             127         2.31680         3.11600        -2.08155        -2.08703
            2399             324         3.42856         2.73173        -2.47798        -1.93801
            2400             223         1.42703         1.31322    -880.463E-03        -1.05782
            2400             328         1.77416         1.36476    -652.759E-03        -1.18419
            2401              75         1.92096         2.46173        -1.14241        -2.46173
            2401             174         2.17191         2.55707        -1.43996        -2.21440
            2402              54         5.16304         2.71408         4.34119         2.40041
            2402             179         3.68538         3.37495         3.19529         2.65668
            2403             117         2.54845         1.97342    -113.189E-03    -963.910E-03
            2403             168         1.92267         1.55051     47.7722E-03     683.195E-03
            2404              71         1.01950         1.18075    -756.817E-03    -918.075E-03
            2404              72         1.33337         1.49055    -746.589E-03        -1.49055
            2405              14         2.59940         1.77999         2.59940     473.738E-03
            2405             118         2.01846         2.17096         2.01846     601.055E-03
            2406              80         8.20573         3.13468        -5.35263        -3.13468
            2406             180         4.27966         8.58768        -3.85662        -8.58405
            2407              59         4.18061         1.71633         3.12422         1.71633
            2407             154         2.16014         2.98015         1.65032         2.22554
            2408              83         2.93955         5.46595        -1.88864        -5.46595
            2408              84         2.69784         5.60768        -2.19309        -5.23731
            2409              66         2.28753         2.93649        -1.84025     824.277E-03
            2409             163     379.244E-03         3.26442        -4.29519        -2.23703
            2410              74         1.73545         2.14125    -999.247E-03        -2.14125
            2410             173         1.90091         2.15796        -1.22718        -1.85233
            2411              85         2.79965         5.64743        -2.26806        -5.35303
            2411              86         2.94776         5.91498        -2.32808        -5.71405
            2412             231         3.25360         3.10835        -1.82432        -1.07504
            2412             263         3.24822         2.79472        -1.87623        -1.56678
            2413              83         2.93955         5.46595        -1.88864        -5.46595
            2413             182         2.33665         5.83501        -1.49519        -5.51900
            2414             128         1.54100         2.20912    -811.136E-03        -1.12305
            2414             220     509.233E-03         5.31184        -3.99174        -2.27663
            2415             120         1.87246         2.42537        -1.07775        -2.24644
            2415             250         2.54511         2.30790        -1.50587        -1.88445
            2416             194         3.56578         4.11218        -3.17693        -3.73175
            2416             278         3.32058         3.81985        -3.23673        -3.03143
            2417              71         1.01950         1.18075    -756.817E-03    -918.075E-03
            2417             167         1.26694         1.03655    -766.808E-03    -782.558E-03
            2418             235         3.51916         4.37874         3.03159         3.48939
            2418             349         3.10062         3.05985         2.49026         1.97682
            2419             109         1.42776         2.21255        -1.07980        -1.86458
            2419             132         1.43049         2.00828    -996.715E-03        -1.57451
            2420             123         12.1174         5.12867         3.97509         2.96149
            2420             192         4.62832         3.24155         4.08399         2.39760
            2421             348         4.38692         4.00718        -3.63617        -2.67911
            2421             365         2.31573         5.04107        -1.76843        -4.75050
            2422              44         2.13722         3.55643         5.20564         2.91909
            2422             176         4.38978         4.10803         3.61659         3.53956
            2423             195         4.70837         4.30612         3.75097         3.81736
            2423             235         3.51916         4.37874         3.03159         3.48939
            2424             151         3.49463         3.37421         2.71509         2.78697
            2424             181         2.92893         4.15700         2.30535         3.39904
            2425              84         2.69784         5.60768        -2.19309        -5.23731
            2425              85         2.79965         5.64743        -2.26806        -5.35303
            2426             255         4.53950         2.13297         4.18722     967.031E-03
            2426             320         5.23709         1.85079         4.46868         1.02881
            2427             147         3.78983         4.11137        -3.49867        -3.57948
            2427             247         3.42751         3.31829        -3.14354        -2.87436
            2428              43     687.027E-03         3.43642         4.93666         2.74207
            2428             195         4.70837         4.30612         3.75097         3.81736
            2429             101         3.34247         14.2078        -1.76716        -6.31666
            2429             102         5.34256         5.67350        -4.37074        -4.61356
            2430              99         3.00860         6.12845        -2.55114        -5.77225
            2430             100         3.36099         13.1879        -2.17306        -6.08278
            2431              92         2.89720         5.43964        -2.19287        -5.22952
            2431             143         2.65293         5.05822        -1.87484        -4.86396
            2432             118         2.01846         2.17096         2.01846     601.055E-03
            2432             227         2.21125         1.75108     931.237E-03     471.071E-03
            2433             100         3.36099         2.76611        -2.17306        -6.08278
            2433             137         2.77646         6.04181        -1.60522        -6.04181
            2434             134         2.94069         1.80316         2.94069     471.535E-03
            2434             221         2.32981         1.94409         2.32981     586.794E-03
            2435             146         4.86936         3.09033         4.21936         2.41610
            2435             280         2.71509         4.65915         2.05726         4.00132
            2436             150         4.06182         5.38087        -3.34976        -4.66881
            2436             182         2.33665         5.83501        -1.49519        -5.51900
            2437             308         5.03613         2.24231         4.23849         1.64394
            2437             363         3.60575         2.53699         2.65692         1.86152
            2438              70     855.958E-03     717.941E-03    -363.297E-03    -717.561E-03
            2438             167         1.26694         1.03655    -766.808E-03    -782.558E-03
            2439             100         3.36099         14.0546        -2.17306        -6.08278
            2439             101         3.34247         14.0546        -1.76716        -6.31666
            2440             198         3.87506         3.95097        -3.47091        -3.43691
            2440             269         4.34320         3.26616        -3.82920        -2.75215
            2441              78         2.45187         4.37744        -1.76805        -3.69361
            2441             172         2.59303         3.77045        -1.16766        -3.77045
            2442             296         1.84343         3.07437         1.39215         1.86848
            2442             398         2.56808         1.63110     596.867E-03         1.55833
            2443             144         4.45706         6.20748         3.94550         4.06648
            2443             235         3.51916         4.37874         3.03159         3.48939
            2444              20         4.00819         2.75127         3.94261         1.77409
            2444             215         3.56759         2.58464         3.20388         1.73233
            2445             105         2.44263         3.53452        -1.32998        -3.53452
            2445             214         3.21756         3.10948        -2.20736        -2.65561
            2446             141         3.44478         3.94417        -2.82982        -3.68495
            2446             246         3.44868         3.49654        -2.71230        -3.14244
            2447               9     861.282E-03     879.011E-03    -815.824E-03     390.894E-03
            2447             128         1.54100         2.20912    -811.136E-03        -1.12305
            2448             161     246.601E-03         4.92477        -3.63587        -2.68666
            2448             163     246.601E-03         6.37302        -4.29519        -2.23703
            2449             117         2.54845         1.97342    -113.189E-03    -963.910E-03
            2449             240         3.37937         2.93381        -1.59969        -1.46613
            2450               3     112.803E-03     85.2705E-03    -8.45183E-03     26.3317E-03
            2450              69     554.580E-03     387.568E-03    -114.004E-03    -275.479E-03
            2451              10         2.38325         2.23423        -2.38325     611.060E-03
            2451             128         1.54100         2.20912    -811.136E-03        -1.12305
            2452             221         2.32981         1.94409         2.32981     586.794E-03
            2452             330         3.03367         1.22239         2.24328     297.735E-03
            2453             168         1.92267         1.55051     47.7722E-03     683.195E-03
            2453             169         1.88515         1.72030         1.00786     843.010E-03
            2454              63         3.07321         1.13396         1.83102         1.13396
            2454             169         1.88515         1.72030         1.00786     843.010E-03
            2455             119         1.72456         2.00831         1.01325    -304.817E-03
            2455             224         2.14971         2.59628    -242.731E-03    -866.870E-03
            2456             148         4.86670         2.99427         4.00703         2.54266
            2456             204         5.11838         3.29734         4.55790         2.66655
            2457             403         2.39200         3.59381         1.46917         3.12040
            2457             524         1.75623         2.84981     908.535E-03         2.30482
            2458             118         2.01846         2.17096         2.01846     601.055E-03
            2458             216         2.21288         1.54474         1.63938     216.861E-03
            2459             198         3.87506         3.95097        -3.47091        -3.43691
            2459             269         4.34320         3.26616        -3.82920        -2.75215
            2460             312         4.75562         2.74073        -4.39961        -2.30750
            2460             382         4.79029         1.54752        -4.53200        -1.19657
            2461             331         2.17698         1.99405         1.66664     566.929E-03
            2461             336         2.37032         1.79452     85.4643E-03     888.421E-03
            2462             125         1.60512         2.13753    -871.127E-03        -1.96355
            2462             132         1.43049         2.00828    -996.715E-03        -1.57451
            2463             129         3.10568         3.12068         2.44456         2.60923
            2463             215         3.56759         2.58464         3.20388         1.73233
            2464             113     870.618E-03     716.580E-03    -355.840E-03    -646.024E-03
            2464             114     456.161E-03     338.491E-03    -259.274E-03    -48.4762E-03
            2465             121         1.36883         1.41426    -757.643E-03        -1.28292
            2465             294         1.71026         1.72542        -1.23041        -1.09039
            2466              37         5.42825         3.49023         4.99609         2.79339
            2466             184         4.27480         3.96985         3.96870         3.37787
            2467             104         3.11114         4.66637        -1.35815        -4.66637
            2467             131         4.02447         5.17550        -2.40073        -5.17550
            2468             106         1.94455         3.30323        -1.47403        -2.83271
            2468             217         2.05869         2.82363    -961.397E-03        -2.82363
            2469             213     394.301E-03         5.24810        -3.75221        -2.80649
            2469             220     394.301E-03         5.31184        -3.99174        -2.27663
            2470              65         1.71494         1.78155     576.225E-03     642.839E-03
            2470             117         2.54845         1.97342    -113.189E-03    -963.910E-03
            2471               6         10.8435         9.23717        -10.8435        -7.35340
            2471             161         14.1341         4.92477        -3.63587        -2.68666
            2472             120         1.87246         2.42537        -1.07775        -2.24644
            2472             125         1.60512         2.13753    -871.127E-03        -1.96355
            2473             208         5.17310         2.60688         4.86367         1.58055
            2473             211         4.87455         3.09960         4.54960         2.31339
            2474             178         4.04469         2.93994         3.74202         1.92992
            2474             302         3.58070         2.58841         3.45196         1.14787
            2475              56         5.15437         2.31296         4.62182         1.67987
            2475             155         3.98328         2.52963         3.04325         2.08986
            2476             129         3.10568         3.12068         2.44456         2.60923
            2476             257         1.66413         4.47485     602.091E-03         4.08271
            2477             107         1.98818         2.62521        -1.17402        -2.62521
            2477             108         1.56837         2.48058        -1.21052        -2.12272
            2478             163         7.52210         6.68593        -4.29519        -2.23703
            2478             240         3.37937         2.93381        -1.59969        -1.46613
            2479              68     804.409E-03     872.609E-03    -280.493E-03    -174.652E-03
            2479             241     768.676E-03         1.00904    -434.420E-03    -674.786E-03
            2480             108         1.56837         2.48058        -1.21052        -2.12272
            2480             109         1.42776         2.21255        -1.07980        -1.86458
            2481             109         1.42776         2.21255        -1.07980        -1.86458
            2481             110         1.30916         1.94511    -974.282E-03        -1.61023
            2482             280         2.71509         4.65915         2.05726         4.00132
            2482             305         3.27484         4.10393         2.45830         3.07935
            2483              43         1.94790         3.43642         4.93666         2.74207
            2483             145         4.34634         4.04704         3.71657         3.62322
            2484             145         4.34634         4.04704         3.71657         3.62322
            2484             235         3.51916         4.37874         3.03159         3.48939
            2485              45         1.00426         3.50673         5.35078         2.96452
            2485             176         4.38978         4.10803         3.61659         3.53956
            2486              46         2.64791         3.11931         5.82376         2.29290
            2486             146         4.86936         3.09033         4.21936         2.41610
            2487               7         10.1226         17.5003        -12.6580        -12.8912
            2487             152         5.64172         17.5003        -3.84808        -8.91234
            2488              91         2.96862         5.50082        -2.30238        -5.29513
            2488             197         3.01067         4.73247        -2.14154        -4.59562
            2489             351         4.00592         2.48155        -3.23715        -1.46547
            2489             407         2.97466         3.12049        -2.16734        -2.43123
            2490             184         4.27480         3.96985         3.96870         3.37787
            2490             233         3.80716         3.50838         3.27780         2.73898
            2491              92         2.89720         5.43964        -2.19287        -5.22952
            2491              93         2.95529         5.33141        -2.07600        -5.07618
            2492             149         3.28962         4.47831         2.46386         4.21215
            2492             238         3.64444         3.44806         2.52861         3.26320
            2493             105         2.44263         3.53452        -1.32998        -3.53452
            2493             106         1.94455         3.30323        -1.47403        -2.83271
            2494             362         2.89865         3.19913        -2.52753        -2.84195
            2494             447         1.95717         2.88427        -1.90999        -2.21072
            2495             103         4.22808         11.4469        -1.34968        -7.35598
            2495             104         3.11114         4.66637        -1.35815        -4.66637
            2496              20         4.00819         2.75127         3.94261         1.77409
            2496             126         3.08434         2.90726         3.05155         1.67248
            2497              21         4.52613         2.45743         4.43481         1.47468
            2497             129         3.10568         3.12068         2.44456         2.60923
            2498              10         2.38325         2.23423        -2.38325     611.060E-03
            2498             220         1.61469         5.31184        -3.99174        -2.27663
            2499             112         1.11477         1.08764    -532.438E-03        -1.08764
            2499             223         1.42703         1.31322    -880.463E-03        -1.05782
            2500              22         4.32910         2.84267         4.12336         1.97756
            2500             130         2.36656         4.26235         2.25556         3.17051
            2501              22         4.32910         2.84267         4.12336         1.97756
            2501             129         3.10568         3.12068         2.44456         2.60923
            2502              98         3.18843         6.26700        -2.68508        -6.05836
            2502              99         3.00860         6.12845        -2.55114        -5.77225
            2503             102         1.61579         5.67350        -4.37074        -4.61356
            2503             209         2.69626         6.74407        -1.55253        -6.38800
            2504              24         4.84938         3.26409         4.61908         2.37063
            2504             133         3.57455         3.86618         3.06141         3.07296
            2505             163         5.46100         1.35820        -4.29519        -2.23703
            2505             245         3.29600         3.07526        -2.64435    -981.872E-03
            2506             311         2.89122         4.39508         2.19586         3.40875
            2506             313         3.76394         3.63599         3.14223         3.01059
            2507              98         3.18843         6.26700        -2.68508        -6.05836
            2507             206         4.02748         4.66325        -3.23707        -4.28083
            2508              26         5.78575         3.05258         5.59364         2.06915
            2508             208         5.17310         2.60688         4.86367         1.58055
            2509              28         5.61399         3.36208         5.07217         2.56900
            2509             138         4.39477         3.40267         4.01522         2.30072
            2510              24         4.84938         3.26409         4.61908         2.37063
            2510             212         3.31201         3.67981         3.19625         2.64164
            2511             276         2.58797         4.64743        -1.90899        -4.42572
            2511             307         3.42995         3.44024        -3.04874        -3.11646
            2512             101         3.34247         3.00612        -1.76716        -6.31666
            2512             209         2.69626         6.74407        -1.55253        -6.38800
            2513              27         5.73393         3.01359         5.50055         1.98499
            2513             138         4.39477         3.40267         4.01522         2.30072
            2514              94         3.52319         14.5682        -2.27763        -5.37650
            2514              95         3.03758         6.31740        -2.25711        -5.89373
            2515              40         1.95513         3.99774         5.57767         3.22526
            2515             142         4.77210         1.15873         4.15436         3.47379
            2516             494         3.14650         1.84170         2.50776     46.1827E-03
            2516             555         2.64263         2.24920     215.103E-03    -179.580E-03
            2517             283         4.19749         3.99177         3.26857         3.15670
            2517             349         3.10062         3.05985         2.49026         1.97682
            2518             198         3.87506         3.95097        -3.47091        -3.43691
            2518             314         4.57351         2.87302        -4.18193        -2.21623
            2519             192         4.62832         3.24155         4.08399         2.39760
            2519             200         4.06653         4.08530         3.41498         3.41975
            2520             136         4.51683         3.49669         3.88906         2.77870
            2520             201         5.42820         2.54280         5.12072         1.54187
            2521              33         2.59854         3.48561         5.34684         2.91638
            2521             204         5.11838         3.29734         4.55790         2.66655
            2522             233         3.80716         3.50838         3.27780         2.73898
            2522             301         3.35107         3.94820         3.08175         3.30522
            2523              36         5.66427         3.12757         4.98792         2.67568
            2523             196         4.03194         3.79187         3.55031         3.04255
            2524              41         3.23563         3.63037         5.96131         3.32408
            2524             144         4.45706     459.433E-03         3.94550         4.06648
            2525              41         1.23685         3.63037         5.96131         3.32408
            2525             142         4.77210         2.39220         4.15436         3.47379
            2526             220         5.66859         5.31184        -3.99174        -2.27663
            2526             262         3.36720         2.56244        -1.32308        -1.89031
            2527             296         1.84343         3.07437         1.39215         1.86848
            2527             297         2.48640         2.85014         2.09696         1.52235
            2528              35         5.69939         3.09401         5.00826         2.63153
            2528             196         4.03194         3.79187         3.55031         3.04255
            2529             329         1.98241         1.56368    -809.588E-03        -1.56368
            2529             347         1.81569         2.02305        -1.15889        -1.31204
            2530             211         4.87455         3.09960         4.54960         2.31339
            2530             320         5.23709         1.85079         4.46868         1.02881
            2531              84         2.69784         5.60768        -2.19309        -5.23731
            2531             185         3.59593         3.96302        -3.27213        -3.50213
            2532              34         2.68270         3.08026         5.76184         2.23380
            2532             148         4.86670         2.99427         4.00703         2.54266
            2533             514         2.10570         1.83308    -694.452E-03    -905.872E-03
            2533             540         2.56454         2.13708    -918.855E-03        -1.11097
            2534             201         5.42820         2.54280         5.12072         1.54187
            2534             234         3.92359         3.61566         3.26569         2.53891
            2535               7         3.20560         17.7825        -12.6580        -12.8912
            2535              81         3.75777         17.7825        -1.44178        -7.66351
            2536              81         3.75777         3.53305        -1.44178        -7.66351
            2536             152         5.64172         3.53305        -3.84808        -8.91234
            2537             224         2.14971         2.59628    -242.731E-03    -866.870E-03
            2537             231         3.25360         3.10835        -1.82432        -1.07504
            2538              42         3.36288         2.84821         5.37294         2.79198
            2538             195         4.70837         4.30612         3.75097         3.81736
            2539              36         5.66427         3.12757         4.98792         2.67568
            2539             184         4.27480         3.96985         3.96870         3.37787
            2540              42         1.53467         2.84821         5.37294         2.79198
            2540             144         4.45706         1.25585         3.94550         4.06648
            2541              55         5.29423         2.47834         4.81637         1.77686
            2541             175         4.56377         2.21800         4.29749         1.12461
            2542             323         2.76617         2.61547         1.99190         1.89368
            2542             417         2.08985         2.89157         1.13490         1.93662
            2543             153         3.49527         2.15035         2.57763         1.76091
            2543             156         3.84243         2.26580         3.17202         1.59539
            2544              57         4.91347         2.07777         3.81240         2.07777
            2544             156         3.84243         2.26580         3.17202         1.59539
            2545              57         4.91347         2.07777         3.81240         2.07777
            2545             155         3.98328         2.52963         3.04325         2.08986
            2546             158         1.55076         1.71987        -1.25737        -1.22299
            2546             294         1.71026         1.72542        -1.23041        -1.09039
            2547              44     827.232E-03         3.55643         5.20564         2.91909
            2547             145         4.34634         4.04704         3.71657         3.62322
            2548             120         1.87246         2.42537        -1.07775        -2.24644
            2548             217         2.05869         2.82363    -961.397E-03        -2.82363
            2549              64         2.28991         1.33691         1.59483     641.831E-03
            2549             168         1.92267         1.55051     47.7722E-03     683.195E-03
            2550              72         1.33337         1.49055    -746.589E-03        -1.49055
            2550             158         1.55076         1.71987        -1.25737        -1.22299
            2551              72         1.33337         1.49055    -746.589E-03        -1.49055
            2551              73         1.53798         1.83815    -873.737E-03        -1.83815
            2552             259         1.05876     936.471E-03    -680.636E-03    -534.195E-03
            2552             436         1.96669         1.91928    -958.973E-03    -964.217E-03
            2553             175         4.56377         2.21800         4.29749         1.12461
            2553             178         4.04469         2.93994         3.74202         1.92992
            2554             187         3.99480         3.80199         3.40104         3.00993
            2554             237         3.35341         3.69458         3.00305         2.75898
            2555              78         2.45187         4.37744        -1.76805        -3.69361
            2555              79         4.33359         3.94770        -3.37137        -2.98548
            2556              73         1.53798         1.83815    -873.737E-03        -1.83815
            2556              74         1.73545         2.14125    -999.247E-03        -2.14125
            2557              73         1.53798         1.83815    -873.737E-03        -1.83815
            2557             159         1.81991         1.85097        -1.48779        -1.29647
            2558               3     112.803E-03     85.2705E-03    -8.45183E-03     26.3317E-03
            2558             164     574.151E-03     655.551E-03    -317.060E-03    -398.460E-03
            2559             117         2.54845         1.97342    -113.189E-03    -963.910E-03
            2559             163         2.01873     834.560E-03        -4.29519        -2.23703
            2560              61         3.57589         1.39625         2.51374         1.39625
            2560             171         2.13539         2.51970         1.22936         2.14474
            2561              61         3.57589         1.39625         2.51374         1.39625
            2561             162         2.24612         2.13800         1.67693         1.31418
            2562              77         2.49423         3.36557        -1.42025        -3.36557
            2562              78         2.45187         4.37744        -1.76805        -3.69361
            2563              76         1.94876         3.10330        -1.50167        -2.65621
            2563              77         2.49423         3.36557        -1.42025        -3.36557
            2564             139         3.91688         4.22494         3.36021         3.31232
            2564             311         2.89122         4.39508         2.19586         3.40875
            2565             205         2.79424         8.62078        -4.58052        -8.09081
            2565             209         2.69626         6.74407        -1.55253        -6.38800
            2566              67         2.73706         1.84051    -967.301E-03    -837.612E-03
            2566             165         1.79609         1.87152    -902.793E-03    -978.231E-03
            2567              67         2.73706         1.84051    -967.301E-03    -837.612E-03
            2567             161         2.65464         4.92477        -3.63587        -2.68666
            2568             219         1.28732         1.08082    -550.882E-03    -969.141E-03
            2568             328         1.77416         1.36476    -652.759E-03        -1.18419
            2569              76         1.94876         3.10330        -1.50167        -2.65621
            2569             174         2.17191         2.55707        -1.43996        -2.21440
            2570              54         5.16304         2.71408         4.34119         2.40041
            2570             178         4.04469         2.93994         3.74202         1.92992
            2571              74         1.73545         2.14125    -999.247E-03        -2.14125
            2571              75         1.92096         2.46173        -1.14241        -2.46173
            2572             162         2.24612         2.13800         1.67693         1.31418
            2572             290         2.41104         1.68744         1.49642     863.617E-03
            2573              63         3.07321         1.13396         1.83102         1.13396
            2573             170         2.07685         2.00303         1.45575         1.09729
            2574             159         1.81991         1.85097        -1.48779        -1.29647
            2574             295         2.11450         1.80720        -1.43002        -1.25271
            2575              62         3.36389         1.26825         2.22550         1.26825
            2575             170         2.07685         2.00303         1.45575         1.09729
            2576              62         3.36389         1.26825         2.22550         1.26825
            2576             162         2.24612         2.13800         1.67693         1.31418
            2577              60         3.81309         1.54085         2.79346         1.54085
            2577             171         2.13539         2.51970         1.22936         2.14474
            2578              60         3.81309         1.54085         2.79346         1.54085
            2578             154         2.16014         2.98015         1.65032         2.22554
            2579              77         2.49423         3.36557        -1.42025        -3.36557
            2579             172         2.59303         3.77045        -1.16766        -3.77045
            2580             114     456.161E-03     338.491E-03    -259.274E-03    -48.4762E-03
            2580             259         1.05876     936.471E-03    -680.636E-03    -534.195E-03
            2581             219         1.28732         1.08082    -550.882E-03    -969.141E-03
            2581             223         1.42703         1.31322    -880.463E-03        -1.05782
            2582             155         3.98328         2.52963         3.04325         2.08986
            2582             175         4.56377         2.21800         4.29749         1.12461
            2583             295         2.11450         1.80720        -1.43002        -1.25271
            2583             397         2.19472         1.94833        -1.16738        -1.63198
            2584             125         1.60512         2.13753    -871.127E-03        -1.96355
            2584             239         2.04057         2.13820        -1.10517        -1.76282
            2585              51         5.31089         3.04601         4.67021         2.51275
            2585             149         3.28962         4.47831         2.46386         4.21215
            2586             256         4.55217         2.14607        -4.00545        -1.57280
            2586             443         3.11799         3.36407        -2.42498        -2.67106
            2587             282         4.12832         2.97463         3.80342         1.73486
            2587             308         5.03613         2.24231         4.23849         1.64394
            2588             229         1.91601         1.90070     147.146E-03         1.32240
            2588             285         2.36598         1.50530    -420.815E-03     876.104E-03
            2589              80         8.20573         3.13468        -5.35263        -3.13468
            2589             177         4.72931         4.78697        -3.12371        -4.30586
            2590             157         3.76822         3.77635        -3.42631        -2.35631
            2590             177         4.72931         4.78697        -3.12371        -4.30586
            2591               7         17.7262         10.7791        -12.6580        -12.8912
            2591             180         17.7262         8.58768        -3.85662        -8.58405
            2592             332         2.28133         2.26813    -139.399E-03    -966.099E-03
            2592             377         2.27216         2.36172    -559.434E-03    -469.873E-03
            2593              53         5.13397         2.72461         4.33093         2.36446
            2593             179         3.68538         3.37495         3.19529         2.65668
            2594              53         5.13397         2.72461         4.33093         2.36446
            2594             151         3.49463         3.37421         2.71509         2.78697
            2595             170         2.07685         2.00303         1.45575         1.09729
            2595             229         1.91601         1.90070     147.146E-03         1.32240
            2596              69     554.580E-03     387.568E-03    -114.004E-03    -275.479E-03
            2596             291         1.06221         1.03538    -499.916E-03    -725.635E-03
            2597              51         5.31089         3.04601         4.67021         2.51275
            2597             181         2.92893         4.15700         2.30535         3.39904
            2598              82         2.72685         6.40208        -1.95509        -5.63032
            2598              83         2.93955         5.46595        -1.88864        -5.46595
            2599              82         2.72685         6.40208        -1.95509        -5.63032
            2599             182         2.33665         5.83501        -1.49519        -5.51900
            2600             149         3.28962         4.47831         2.46386         4.21215
            2600             183         4.09361         3.96723         3.45467         3.54161
            2601              49         5.94621         2.85750         5.58922         2.12681
            2601             183         4.09361         3.96723         3.45467         3.54161
            2602              48         5.77490         3.10237         4.96963         2.74816
            2602             187         3.99480         3.80199         3.40104         3.00993
            2603             457         1.76465         1.73975    -831.572E-03    -581.264E-03
            2603             477         1.77375         1.65304    -807.364E-03    -745.829E-03
            2604             188         4.27333         4.19846         3.88367         3.34819
            2604             248         2.64852         4.63129         1.98096         3.96373
            2605             222         1.47704         1.66591    -802.283E-03        -1.50719
            2605             253         1.54322         1.77182    -956.852E-03        -1.18545
            2606             183         4.09361         3.96723         3.45467         3.54161
            2606             186         4.06030         4.01204         3.48071         3.48925
            2607              48         5.77490         3.10237         4.96963         2.74816
            2607             186         4.06030         4.01204         3.48071         3.48925
            2608             166         2.59456         2.89764        -1.59662        -2.67410
            2608             298         2.62702         2.76261        -1.34151        -2.41994
            2609              47         5.78996         3.11830         5.02728         2.69073
            2609             146         4.86936         3.09033         4.21936         2.41610
            2610              93         2.95529         5.33141        -2.07600        -5.07618
            2610              94         3.52319         13.0481        -2.27763        -5.37650
            2611             103         4.22808         3.25944        -1.34968        -7.35598
            2611             210         4.99270         3.25944        -2.91489        -9.64356
            2612               8         17.5008         10.2819        -12.8904        -12.6232
            2612             205         17.5008         8.62078        -4.58052        -8.09081
            2613              32         2.27692         3.52988         5.18661         2.85198
            2613             188         4.27333         4.19846         3.88367         3.34819
            2614              32     798.005E-03         3.52988         5.18661         2.85198
            2614             136         4.51683         3.49669         3.88906         2.77870
            2615              30         5.95287         3.03612         5.66787         2.06232
            2615             201         5.42820         2.54280         5.12072         1.54187
            2616              95         3.03758         6.31740        -2.25711        -5.89373
            2616             203         3.37561         4.75760        -2.61823        -4.15313
            2617              86         2.94776         5.91498        -2.32808        -5.71405
            2617              87         2.89819         5.60087        -2.16894        -5.36617
            2618              86         2.94776         5.91498        -2.32808        -5.71405
            2618             189         4.32579         3.95954        -3.71977        -3.53298
            2619              87         2.89819         5.60087        -2.16894        -5.36617
            2619              88         2.82863         5.23360        -2.11910        -5.03270
            2620              87         2.89819         5.60087        -2.16894        -5.36617
            2620             191         3.36584         3.68249        -2.64904        -3.21297
            2621              38         5.88116         3.10395         5.62072         2.14539
            2621             192         4.62832         3.24155         4.08399         2.39760
            2622             138         4.39477         3.40267         4.01522         2.30072
            2622             264         3.65098         3.39477         2.70739         2.76857
            2623              88         2.82863         5.23360        -2.11910        -5.03270
            2623              89         2.89694         5.34693        -2.26335        -5.15720
            2624              88         2.82863         5.23360        -2.11910        -5.03270
            2624             193         3.45603         3.74670        -3.03645        -3.15007
            2625              89         2.89694         5.34693        -2.26335        -5.15720
            2625              90         2.97806         5.45220        -2.34244        -5.28605
            2626              89         2.89694         5.34693        -2.26335        -5.15720
            2626             194         3.56578         4.11218        -3.17693        -3.73175
            2627              35         5.69939         3.09401         5.00826         2.63153
            2627             148         4.86670         2.99427         4.00703         2.54266
            2628             188         4.27333         4.19846         3.88367         3.34819
            2628             266         2.43061         5.04727         1.48379         4.45527
            2629              90         2.97806         5.45220        -2.34244        -5.28605
            2629              91         2.96862         5.50082        -2.30238        -5.29513
            2630              90         2.97806         5.45220        -2.34244        -5.28605
            2630             197         3.01067         4.73247        -2.14154        -4.59562
            2631              99         3.00860         6.12845        -2.55114        -5.77225
            2631             202         4.01220         4.28572        -3.72002        -3.78605
            2632             157         3.76822         3.77635        -3.42631        -2.35631
            2632             249         3.31938         4.71322        -2.19129        -3.63509
            2633              95         3.03758         6.31740        -2.25711        -5.89373
            2633              96         2.85941         6.00723        -2.28852        -5.65853
            2634              96         2.85941         6.00723        -2.28852        -5.65853
            2634              97         3.23326         12.3622        -2.50904        -5.83767
            2635              33     864.438E-03         3.48561         5.34684         2.91638
            2635             188         4.27333         4.19846         3.88367         3.34819
            2636              93         2.95529         5.33141        -2.07600        -5.07618
            2636             199         3.16077         4.30425        -2.41204        -3.92995
            2637              37         5.42825         3.49023         4.99609         2.79339
            2637             200         4.06653         4.08530         3.41498         3.41975
            2638              23         4.57452         3.07541         4.35252         2.18115
            2638             130         2.36656         4.26235         2.25556         3.17051
            2639             138         4.39477         3.40267         4.01522         2.30072
            2639             208         5.17310         2.60688         4.86367         1.58055
            2640             185         3.59593         3.96302        -3.27213        -3.50213
            2640             247         3.42751         3.31829        -3.14354        -2.87436
            2641             212         3.31201         3.67981         3.19625         2.64164
            2641             255         4.53950         2.13297         4.18722     967.031E-03
            2642             205         1.72482         8.62078        -4.58052        -8.09081
            2642             210         4.99270         11.9005        -2.91489        -9.64356
            2643             401         3.39275         2.94597        -2.83963        -1.37674
            2643             430         2.63226         3.38781        -1.07883        -2.83469
            2644              25         5.26593         3.39079         4.93262         2.57539
            2644             211         4.87455         3.09960         4.54960         2.31339
            2645             327         1.36673         1.59403    -995.292E-03    -645.637E-03
            2645             432         1.77320         1.89316    -748.959E-03    -868.920E-03
            2646             292         2.62186         1.93713        -1.49677        -1.63150
            2646             295         2.11450         1.80720        -1.43002        -1.25271
            2647             131         4.02447         5.17550        -2.40073        -5.17550
            2647             325         4.16819         3.08183        -2.78389        -2.53717
            2648              97         3.23326         13.8402        -2.50904        -5.83767
            2648              98         3.18843         6.26700        -2.68508        -6.05836
            2649              97         3.23326         2.63827        -2.50904        -5.83767
            2649             206         4.02748         4.66325        -3.23707        -4.28083
            2650              29         5.77985         3.31576         5.15782         2.63273
            2650             139         3.91688         4.22494         3.36021         3.31232
            2651              23         4.57452         3.07541         4.35252         2.18115
            2651             212         3.31201         3.67981         3.19625         2.64164
            2652             116     614.464E-03     420.065E-03    -437.030E-03    -147.013E-03
            2652             376         1.60382         1.58609        -1.01046    -678.532E-03
            2653             129         3.10568         3.12068         2.44456         2.60923
            2653             130         2.36656         4.26235         2.25556         3.17051
            2654               8         3.24766         17.0983        -12.8904        -12.6232
            2654             103         4.22808         17.0983        -1.34968        -7.35598
            2655               8         10.9571         17.4863        -12.8904        -12.6232
            2655             210         4.99270         17.4863        -2.91489        -9.64356
            2656              25         5.26593         3.39079         4.93262         2.57539
            2656             133         3.57455         3.86618         3.06141         3.07296
            2657             122         3.26442         4.38306        -2.85753        -3.97616
            2657             182         2.33665         5.83501        -1.49519        -5.51900
            2658               1     173.860E-03     131.734E-03    -128.401E-03     131.734E-03
            2658             268     951.745E-03         1.07433    -951.745E-03    -221.960E-03
            2659             121         1.36883         1.41426    -757.643E-03        -1.28292
            2659             261         1.54126         1.63813    -919.482E-03        -1.01635
            2660             168         1.92267         1.55051     47.7722E-03     683.195E-03
            2660             225         2.02585         2.34017        -1.24542     240.092E-03
            2661               5         10.7935         9.33930        -10.7935        -7.45143
            2661             213         15.6187         5.24810        -3.75221        -2.80649
            2662              15         2.72597         2.00722         2.72597     833.717E-03
            2662             118         2.01846         2.17096         2.01846     601.055E-03
            2663             111         1.18429         1.61126    -866.842E-03        -1.29381
            2663             112         1.11477         1.08764    -532.438E-03        -1.08764
            2664             104         3.11114         4.66637        -1.35815        -4.66637
            2664             105         2.44263         3.53452        -1.32998        -3.53452
            2665             202         4.01220         4.28572        -3.72002        -3.78605
            2665             274         5.03917         2.60922        -4.83582        -2.14776
            2666             327         1.36673         1.59403    -995.292E-03    -645.637E-03
            2666             358         1.65540         1.88307    -915.152E-03    -797.093E-03
            2667             141         3.44478         3.94417        -2.82982        -3.68495
            2667             143         2.65293         5.05822        -1.87484        -4.86396
            2668             119         1.72456         2.00831         1.01325    -304.817E-03
            2668             216         2.21288         1.54474         1.63938     216.861E-03
            2669              11         3.07775         2.28982    -417.076E-03    -700.973E-03
            2669             224         2.14971         2.59628    -242.731E-03    -866.870E-03
            2670             294         1.71026         1.72542        -1.23041        -1.09039
            2670             373         1.95629         1.77263    -832.980E-03        -1.22790
            2671             126         3.08434         2.90726         3.05155         1.67248
            2671             218         3.06631         2.65817         3.06631         1.34225
            2672              18         3.49582         2.55265         3.49582         1.47715
            2672             218         3.06631         2.65817         3.06631         1.34225
            2673             227         2.21125         1.75108     931.237E-03     471.071E-03
            2673             272         1.85881         2.31683         1.07653    -722.467E-03
            2674             113     870.618E-03     716.580E-03    -355.840E-03    -646.024E-03
            2674             219         1.28732         1.08082    -550.882E-03    -969.141E-03
            2675             112         1.11477         1.08764    -532.438E-03        -1.08764
            2675             113     870.618E-03     716.580E-03    -355.840E-03    -646.024E-03
            2676             149         3.28962         4.47831         2.46386         4.21215
            2676             183         4.09361         3.96723         3.45467         3.54161
            2677              15         2.72597         2.00722         2.72597     833.717E-03
            2677             221         2.32981         1.94409         2.32981     586.794E-03
            2678             110         1.30916         1.94511    -974.282E-03        -1.61023
            2678             111         1.18429         1.61126    -866.842E-03        -1.29381
            2679             110         1.30916         1.94511    -974.282E-03        -1.61023
            2679             222         1.47704         1.66591    -802.283E-03        -1.50719
            2680             251         3.71175         3.34818        -2.77023        -3.13379
            2680             252         4.61945         2.59073        -3.93663        -2.27132
            2681             363         3.60575         2.53699         2.65692         1.86152
            2681             423         2.52053         2.18477         1.38771         1.78096
            2682             141         3.44478         3.94417        -2.82982        -3.68495
            2682             256         4.55217         2.14607        -4.00545        -1.57280
            2683             149         3.28962         4.47831         2.46386         4.21215
            2683             181         2.92893         4.15700         2.30535         3.39904
            2684              11         3.07775         2.28982    -417.076E-03    -700.973E-03
            2684             213         3.45086         5.24810        -3.75221        -2.80649
            2685             164     574.151E-03     655.551E-03    -317.060E-03    -398.460E-03
            2685             241     768.676E-03         1.00904    -434.420E-03    -674.786E-03
            2686             165         1.79609         1.87152    -902.793E-03    -978.231E-03
            2686             241     768.676E-03         1.00904    -434.420E-03    -674.786E-03
            2687             156         3.84243         2.26580         3.17202         1.59539
            2687             297         2.48640         2.85014         2.09696         1.52235
            2688             143         2.65293         5.05822        -1.87484        -4.86396
            2688             309         3.35099         3.56646        -2.57707        -3.03974
            2689             134         2.94069         1.80316         2.94069     471.535E-03
            2689             230         2.69503         2.18896         2.14657     838.695E-03
            2690             250         2.54511         2.30790        -1.50587        -1.88445
            2690             378         2.46728         2.05805        -2.08833    -738.342E-03
            2691             225         2.02585         2.34017        -1.24542     240.092E-03
            2691             345         2.63008         2.57397        -1.56823    -657.347E-03
            2692             168         1.92267         1.55051     47.7722E-03     683.195E-03
            2692             169         1.88515         1.72030         1.00786     843.010E-03
            2693             114     456.161E-03     338.491E-03    -259.274E-03    -48.4762E-03
            2693             116     614.464E-03     420.065E-03    -437.030E-03    -147.013E-03
            2694              94         3.52319         1.96495        -2.27763        -5.37650
            2694             367         5.07115         3.93701        -3.81479        -2.85603
            2695             170         2.07685         2.00303         1.45575         1.09729
            2695             229         1.91601         1.90070     147.146E-03         1.32240
            2696             166         2.59456         2.89764        -1.59662        -2.67410
            2696             172         2.59303         3.77045        -1.16766        -3.77045
            2697             147         3.78983         4.11137        -3.49867        -3.57948
            2697             254         4.25447         3.11484        -3.87909        -2.75551
            2698             193         3.45603         3.74670        -3.03645        -3.15007
            2698             251         3.71175         3.34818        -2.77023        -3.13379
            2699             193         3.45603         3.74670        -3.03645        -3.15007
            2699             278         3.32058         3.81985        -3.23673        -3.03143
            2700             264         3.65098         3.39477         2.70739         2.76857
            2700             311         2.89122         4.39508         2.19586         3.40875
            2701             330         3.03367         1.22239         2.24328     297.735E-03
            2701             331         2.17698         1.99405         1.66664     566.929E-03
            2702             147         3.78983         4.11137        -3.49867        -3.57948
            2702             247         3.42751         3.31829        -3.14354        -2.87436
            2703             209         2.69626         6.74407        -1.55253        -6.38800
            2703             322         3.16348         5.28920        -2.40784        -5.11084
            2704             480         2.67656         2.16552     97.4594E-03         1.54833
            2704             541         2.93894         1.65948    -106.835E-03         1.09935
            2705             344         2.18032         2.31312        -1.29361        -1.42640
            2705             452         1.49394         1.65564    -913.542E-03        -1.07524
            2706             126         3.08434         2.90726         3.05155         1.67248
            2706             326         2.03622         3.36726         1.57339         2.12626
            2707             178         4.04469         2.93994         3.74202         1.92992
            2707             289         2.57714         3.40844         2.51340         1.86223
            2708             208         5.17310         2.60688         4.86367         1.58055
            2708             315         4.21274         2.83300         3.86728         1.95035
            2709             302         3.58070         2.58841         3.45196         1.14787
            2709             303         3.74060         2.52271         3.31322         1.63630
            2710             243         3.67224         5.34044        -3.10472        -5.01426
            2710             304         3.23820         5.98687        -2.84830        -5.83830
            2711             151         3.49463         3.37421         2.71509         2.78697
            2711             181         2.92893         4.15700         2.30535         3.39904
            2712             284         2.38907         4.93993         1.60352         4.48400
            2712             310         3.30483         4.09164         2.64105         3.19979
            2713             408         3.80602         2.11761         2.73806         1.82469
            2713             495         2.68474         2.33469         1.22385         1.05899
            2714             265         3.01821         2.64617         2.62364         1.29047
            2714             300         3.27430         2.57214         2.88480         1.26531
            2715             152         5.64172         3.86074        -3.84808        -8.91234
            2715             243         3.67224         5.34044        -3.10472        -5.01426
            2716             243         3.67224         5.34044        -3.10472        -5.01426
            2716             365         2.31573         5.04107        -1.76843        -4.75050
            2717             242         3.05121         4.62503        -2.48337        -4.05720
            2717             276         2.58797         4.64743        -1.90899        -4.42572
            2718             160         1.01196     851.311E-03    -425.553E-03    -764.696E-03
            2718             359         1.17805         1.32269    -555.771E-03    -818.848E-03
            2719             165         1.79609         1.87152    -902.793E-03    -978.231E-03
            2719             244         2.69261         3.29244        -2.05320        -1.21129
            2720             237         3.35341         3.69458         3.00305         2.75898
            2720             305         3.27484         4.10393         2.45830         3.07935
            2721             490         3.47902         1.60217        -2.83852        -1.20221
            2721             498         2.81707         1.70290        -1.91118    -983.621E-03
            2722             274         5.03917         2.60922        -4.83582        -2.14776
            2722             372         5.74405         1.82675        -5.20866    -894.754E-03
            2723             380         2.47340         1.76955        -1.08491     274.710E-03
            2723             478         2.45356         1.66602        -1.09139     240.935E-03
            2724             217         2.05869         2.82363    -961.397E-03        -2.82363
            2724             267         2.81688         2.63757        -1.65801        -2.16891
            2725             311         2.89122         4.39508         2.19586         3.40875
            2725             413         1.64049         4.87244     2.50138E-03         4.34210
            2726             189         4.32579         3.95954        -3.71977        -3.53298
            2726             252         4.61945         2.59073        -3.93663        -2.27132
            2727             334         4.25857         2.06234        -3.71403        -1.16100
            2727             351         4.00592         2.48155        -3.23715        -1.46547
            2728             185         3.59593         3.96302        -3.27213        -3.50213
            2728             307         3.42995         3.44024        -3.04874        -3.11646
            2729             142         4.77210     575.351E-03         4.15436         3.47379
            2729             308         5.03613         2.24231         4.23849         1.64394
            2730             182         2.33665         5.83501        -1.49519        -5.51900
            2730             276         2.58797         4.64743        -1.90899        -4.42572
            2731             177         4.72931         4.78697        -3.12371        -4.30586
            2731             180         2.48394         8.58768        -3.85662        -8.58405
            2732             144         4.45706         1.71071         3.94550         4.06648
            2732             306         3.88380         3.88909         3.34458         2.77964
            2733             140         3.10786         5.10634        -2.65861        -4.26156
            2733             203         3.37561         4.75760        -2.61823        -4.15313
            2734             127         2.31680         3.11600        -2.08155        -2.08703
            2734             217         2.05869         2.82363    -961.397E-03        -2.82363
            2735             255         4.53950         2.13297         4.18722     967.031E-03
            2735             360         2.96255         2.83876         1.42487         2.19041
            2736             175         4.56377         2.21800         4.29749         1.12461
            2736             300         3.27430         2.57214         2.88480         1.26531
            2737               9     861.282E-03     879.011E-03    -815.824E-03     390.894E-03
            2737             268     951.745E-03         1.07433    -951.745E-03    -221.960E-03
            2738             347         1.81569         2.02305        -1.15889        -1.31204
            2738             433         1.86296         2.29642        -1.36617    -766.116E-03
            2739             496         2.57824         3.61296        -2.14625        -2.94407
            2739             531         1.83324         3.19730        -1.32601        -2.54295
            2740             379         2.00714         1.61627    -911.506E-03        -1.05882
            2740             469         2.16646         1.95691        -1.11407    -904.524E-03
            2741             557         2.52021         1.94576    -768.159E-03     364.410E-03
            2741             620         2.25880         2.08938     987.254E-03        -1.03629
            2742             230         2.69503         2.18896         2.14657     838.695E-03
            2742             330         3.03367         1.22239         2.24328     297.735E-03
            2743             273         2.36185         3.32644         1.70459         2.60344
            2743             323         2.76617         2.61547         1.99190         1.89368
            2744             230         2.69503         2.18896         2.14657     838.695E-03
            2744             337         2.55318         1.87806         1.44694     232.862E-03
            2745             234         3.92359         3.61566         3.26569         2.53891
            2745             313         3.76394         3.63599         3.14223         3.01059
            2746             154         2.16014         2.98015         1.65032         2.22554
            2746             286         1.95169         2.52448     697.496E-03         2.14952
            2747             352         2.37158         3.61769        -1.13098        -3.56255
            2747             407         2.97466         3.12049        -2.16734        -2.43123
            2748             166         2.59456         2.89764        -1.59662        -2.67410
            2748             236         2.76986         3.38436        -1.99547        -2.36825
            2749             156         3.84243         2.26580         3.17202         1.59539
            2749             265         3.01821         2.64617         2.62364         1.29047
            2750             205         3.71240         8.62078        -4.58052        -8.09081
            2750             321         3.23771         6.42084        -2.49129        -5.99355
            2751             158         1.55076         1.71987        -1.25737        -1.22299
            2751             258         1.82929         1.94746        -1.51294        -1.13424
            2752             456         3.27829         3.92995        -2.22360        -2.87526
            2752             465         3.06090         4.03771        -2.43816        -2.40505
            2753             168         1.92267         1.55051     47.7722E-03     683.195E-03
            2753             285         2.36598         1.50530    -420.815E-03     876.104E-03
            2754             170         2.07685         2.00303         1.45575         1.09729
            2754             293         1.90059         2.16881         1.37326     735.747E-03
            2755             290         2.41104         1.68744         1.49642     863.617E-03
            2755             293         1.90059         2.16881         1.37326     735.747E-03
            2756             159         1.81991         1.85097        -1.48779        -1.29647
            2756             258         1.82929         1.94746        -1.51294        -1.13424
            2757             124         2.61903         2.74352         2.61903         1.37984
            2757             260         2.18145         2.98298         1.14856         2.15567
            2758             124         2.61903         2.74352         2.61903         1.37984
            2758             230         2.69503         2.18896         2.14657     838.695E-03
            2759              69     554.580E-03     387.568E-03    -114.004E-03    -275.479E-03
            2759             160         1.01196     851.311E-03    -425.553E-03    -764.696E-03
            2760             220         4.41811         5.31184        -3.99174        -2.27663
            2760             263         3.24822         2.79472        -1.87623        -1.56678
            2761             131         4.02447         5.17550        -2.40073        -5.17550
            2761             210         4.99270         13.2175        -2.91489        -9.64356
            2762             234         3.92359         3.61566         3.26569         2.53891
            2762             313         3.76394         3.63599         3.14223         3.01059
            2763             135         3.71634         4.85798        -3.09119        -4.67988
            2763             312         4.75562         2.74073        -4.39961        -2.30750
            2764             315         4.21274         2.83300         3.86728         1.95035
            2764             320         5.23709         1.85079         4.46868         1.02881
            2765             264         3.65098         3.39477         2.70739         2.76857
            2765             319         4.53693         2.85725         3.34291         2.15404
            2766             406         3.44490         2.46201        -2.81170        -2.33906
            2766             485         1.49386         3.42648    -593.837E-03        -3.38201
            2767             207         5.03514         3.24410         4.73451         2.23669
            2767             313         3.76394         3.63599         3.14223         3.01059
            2768             311         2.89122         4.39508         2.19586         3.40875
            2768             313         3.76394         3.63599         3.14223         3.01059
            2769             183         4.09361         3.96723         3.45467         3.54161
            2769             186         4.06030         4.01204         3.48071         3.48925
            2770             248         2.64852         4.63129         1.98096         3.96373
            2770             266         2.43061         5.04727         1.48379         4.45527
            2771             157         3.76822         3.77635        -3.42631        -2.35631
            2771             299         3.48641         3.59920        -2.59803        -2.51204
            2772               1     173.860E-03     131.734E-03    -128.401E-03     131.734E-03
            2772             116     614.464E-03     420.065E-03    -437.030E-03    -147.013E-03
            2773             130         2.36656         4.26235         2.25556         3.17051
            2773             275         2.94275         3.73864         2.56692         2.70352
            2774             255         4.53950         2.13297         4.18722     967.031E-03
            2774             275         2.94275         3.73864         2.56692         2.70352
            2775             194         3.56578         4.11218        -3.17693        -3.73175
            2775             271         3.65427         3.29137        -3.31588        -2.37908
            2776             183         4.09361         3.96723         3.45467         3.54161
            2776             279         3.32183         3.84484         2.22606         3.60682
            2777             373         1.95629         1.77263    -832.980E-03        -1.22790
            2777             390         1.76626         1.79990        -1.03429    -729.609E-03
            2778             301         3.35107         3.94820         3.08175         3.30522
            2778             310         3.30483         4.09164         2.64105         3.19979
            2779             119         1.72456         2.00831         1.01325    -304.817E-03
            2779             272         1.85881         2.31683         1.07653    -722.467E-03
            2780             252         4.61945         2.59073        -3.93663        -2.27132
            2780             333         3.86947         3.87756        -3.11233        -3.12042
            2781             127         2.31680         3.11600        -2.08155        -2.08703
            2781             267         2.81688         2.63757        -1.65801        -2.16891
            2782             324         3.42856         2.73173        -2.47798        -1.93801
            2782             325         4.16819         3.08183        -2.78389        -2.53717
            2783             391         2.47128         2.59839        -1.65182        -1.55218
            2783             440         2.52887         2.16143    -892.863E-03        -1.61579
            2784             251         3.71175         3.34818        -2.77023        -3.13379
            2784             352         2.37158         3.61769        -1.13098        -3.56255
            2785             356         1.69581         4.38438     556.890E-03         3.72753
            2785             387         1.57529         4.71420     450.579E-03         4.07667
            2786             130         2.36656         4.26235         2.25556         3.17051
            2786             257         1.66413         4.47485     602.091E-03         4.08271
            2787             226         4.01252         3.57903         3.23464         3.00584
            2787             349         3.10062         3.05985         2.49026         1.97682
            2788             306         3.88380         3.88909         3.34458         2.77964
            2788             308         5.03613         2.24231         4.23849         1.64394
            2789             181         2.92893         4.15700         2.30535         3.39904
            2789             277         3.02904         3.69065         2.17896         2.63411
            2790             374         3.15117         2.05966        -2.20885        -1.11734
            2790             419         3.26018         2.69049        -2.24103        -1.67134
            2791             175         4.56377         2.21800         4.29749         1.12461
            2791             300         3.27430         2.57214         2.88480         1.26531
            2792             121         1.36883         1.41426    -757.643E-03        -1.28292
            2792             158         1.55076         1.71987        -1.25737        -1.22299
            2793             186         4.06030         4.01204         3.48071         3.48925
            2793             279         3.32183         3.84484         2.22606         3.60682
            2794             146         4.86936         3.09033         4.21936         2.41610
            2794             280         2.71509         4.65915         2.05726         4.00132
            2795             226         4.01252         3.57903         3.23464         3.00584
            2795             280         2.71509         4.65915         2.05726         4.00132
            2796             482         2.87744         2.30959        -1.76159        -1.19374
            2796             544         2.65915         2.32814        -1.55583        -1.22483
            2797             176         4.38978         4.10803         3.61659         3.53956
            2797             226         4.01252         3.57903         3.23464         3.00584
            2798             145         4.34634         4.04704         3.71657         3.62322
            2798             283         4.19749         3.99177         3.26857         3.15670
            2799             192         4.62832         3.24155         4.08399         2.39760
            2799             200         4.06653         4.08530         3.41498         3.41975
            2800             200         4.06653         4.08530         3.41498         3.41975
            2800             281         3.39350         3.73877         2.29025         3.39399
            2801             192         4.62832         3.24155         4.08399         2.39760
            2801             282         4.12832         2.97463         3.80342         1.73486
            2802             192         4.62832         3.24155         4.08399         2.39760
            2802             281         3.39350         3.73877         2.29025         3.39399
            2803             232         1.73032         1.89672    -821.864E-03        -1.63039
            2803             239         2.04057         2.13820        -1.10517        -1.76282
            2804             204         5.11838         3.29734         4.55790         2.66655
            2804             284         2.38907         4.93993         1.60352         4.48400
            2805             204         5.11838         3.29734         4.55790         2.66655
            2805             266         2.43061         5.04727         1.48379         4.45527
            2806             374         3.15117         2.05966        -2.20885        -1.11734
            2806             378         2.46728         2.05805        -2.08833    -738.342E-03
            2807             292         2.62186         1.93713        -1.49677        -1.63150
            2807             391         2.47128         2.59839        -1.65182        -1.55218
            2808             154         2.16014         2.98015         1.65032         2.22554
            2808             171         2.13539         2.51970         1.22936         2.14474
            2809             156         3.84243         2.26580         3.17202         1.59539
            2809             265         3.01821         2.64617         2.62364         1.29047
            2810             249         3.31938         4.71322        -2.19129        -3.63509
            2810             355         3.94771         3.82345        -2.23118        -3.46062
            2811             242         3.05121         4.62503        -2.48337        -4.05720
            2811             385         3.22459         3.27685        -2.76733        -2.96069
            2812             167         1.26694         1.03655    -766.808E-03    -782.558E-03
            2812             287         1.46947         1.39510    -883.890E-03    -748.772E-03
            2813             160         1.01196     851.311E-03    -425.553E-03    -764.696E-03
            2813             167         1.26694         1.03655    -766.808E-03    -782.558E-03
            2814             196         4.03194         3.79187         3.55031         3.04255
            2814             301         3.35107         3.94820         3.08175         3.30522
            2815             175         4.56377         2.21800         4.29749         1.12461
            2815             289         2.57714         3.40844         2.51340         1.86223
            2816             284         2.38907         4.93993         1.60352         4.48400
            2816             410         1.24929         4.91046     404.001E-03         4.35919
            2817             286         1.95169         2.52448     697.496E-03         2.14952
            2817             290         2.41104         1.68744         1.49642     863.617E-03
            2818             528         2.64854         1.74853         1.44467    -98.4942E-03
            2818             574         2.82946         1.41469         1.59030    -181.765E-03
            2819             422         2.64232         2.57324        -1.65773    -860.778E-03
            2819             431         2.35523         2.84775        -1.52162        -1.15604
            2820             173         1.90091         2.15796        -1.22718        -1.85233
            2820             174         2.17191         2.55707        -1.43996        -2.21440
            2821             154         2.16014         2.98015         1.65032         2.22554
            2821             296         1.84343         3.07437         1.39215         1.86848
            2822             484         2.74897         1.45800         1.68799     313.677E-03
            2822             518         2.01770         1.75690         1.14899    -325.602E-03
            2823             382         4.79029         1.54752        -4.53200        -1.19657
            2823             472         4.60263     888.215E-03        -4.28537    -377.572E-03
            2824             226         4.01252         3.57903         3.23464         3.00584
            2824             280         2.71509         4.65915         2.05726         4.00132
            2825             234         3.92359         3.61566         3.26569         2.53891
            2825             248         2.64852         4.63129         1.98096         3.96373
            2826             279         3.32183         3.84484         2.22606         3.60682
            2826             383         3.30396         2.77779         2.43924         2.00045
            2827             292         2.62186         1.93713        -1.49677        -1.63150
            2827             298         2.62702         2.76261        -1.34151        -2.41994
            2828             325         4.16819         3.08183        -2.78389        -2.53717
            2828             371         3.39837         3.84360        -2.69867        -2.80918
            2829             357         2.15855         2.51710        -2.14874    -904.197E-03
            2829             431         2.35523         2.84775        -1.52162        -1.15604
            2830             299         3.48641         3.59920        -2.59803        -2.51204
            2830             350         3.93916         3.53676        -3.93916        -1.27136
            2831             289         2.57714         3.40844         2.51340         1.86223
            2831             405         3.16101         1.92363         2.17770     990.731E-03
            2832             325         4.16819         3.08183        -2.78389        -2.53717
            2832             412         3.27154         3.23561        -1.81588        -2.73053
            2833             157         3.76822         3.77635        -3.42631        -2.35631
            2833             172         2.59303         3.77045        -1.16766        -3.77045
            2834             172         2.59303         3.77045        -1.16766        -3.77045
            2834             299         3.48641         3.59920        -2.59803        -2.51204
            2835             140         3.10786         5.10634        -2.65861        -4.26156
            2835             364         4.07722         3.29366        -3.52746        -2.35702
            2836             351         4.00592         2.48155        -3.23715        -1.46547
            2836             407         2.97466         3.12049        -2.16734        -2.43123
            2837             318         3.35439         4.63949        -2.69175        -4.42389
            2837             414         4.84864         1.88082        -4.24221        -1.66204
            2838             441         1.85184         3.19084     313.797E-03         1.69264
            2838             460         1.92555         2.59079    -539.571E-03         2.14977
            2839             409         4.94262         1.88118        -4.58800        -1.52656
            2839             414         4.84864         1.88082        -4.24221        -1.66204
            2840             334         4.25857         2.06234        -3.71403        -1.16100
            2840             427         2.56301         3.38547        -2.01199        -2.66749
            2841             179         3.68538         3.37495         3.19529         2.65668
            2841             303         3.74060         2.52271         3.31322         1.63630
            2842             277         3.02904         3.69065         2.17896         2.63411
            2842             303         3.74060         2.52271         3.31322         1.63630
            2843             152         5.64172         8.02751        -3.84808        -8.91234
            2843             304         3.23820         5.98687        -2.84830        -5.83830
            2844             152         5.64172         12.3912        -3.84808        -8.91234
            2844             180         1.90691         8.58768        -3.85662        -8.58405
            2845             180         5.46462         8.58768        -3.85662        -8.58405
            2845             288         3.91413         5.87290        -2.64472        -5.15064
            2846             146         4.86936         3.09033         4.21936         2.41610
            2846             305         3.27484         4.10393         2.45830         3.07935
            2847             197         3.01067         4.73247        -2.14154        -4.59562
            2847             309         3.35099         3.56646        -2.57707        -3.03974
            2848             143         2.65293         5.05822        -1.87484        -4.86396
            2848             197         3.01067         4.73247        -2.14154        -4.59562
            2849             426         2.16723         3.57683        -1.63063        -2.88340
            2849             500         1.80695         2.81907        -1.29753        -1.59674
            2850             332         2.28133         2.26813    -139.399E-03    -966.099E-03
            2850             377         2.27216         2.36172    -559.434E-03    -469.873E-03
            2851             140         3.10786         5.10634        -2.65861        -4.26156
            2851             270         3.65920         3.17900        -3.06158        -2.74207
            2852             352         2.37158         3.61769        -1.13098        -3.56255
            2852             407         2.97466         3.12049        -2.16734        -2.43123
            2853             254         4.25447         3.11484        -3.87909        -2.75551
            2853             406         3.44490         2.46201        -2.81170        -2.33906
            2854             148         4.86670         2.99427         4.00703         2.54266
            2854             310         3.30483         4.09164         2.64105         3.19979
            2855             148         4.86670         2.99427         4.00703         2.54266
            2855             284         2.38907         4.93993         1.60352         4.48400
            2856             139         3.91688         4.22494         3.36021         3.31232
            2856             264         3.65098         3.39477         2.70739         2.76857
            2857             362         2.89865         3.19913        -2.52753        -2.84195
            2857             455         2.48790         2.58465        -2.18959        -2.16307
            2858             244         2.69261         3.29244        -2.05320        -1.21129
            2858             341         3.19557         2.78927        -2.21456        -1.32514
            2859             165         1.79609         1.87152    -902.793E-03    -978.231E-03
            2859             344         2.18032         2.31312        -1.29361        -1.42640
            2860             341         3.19557         2.78927        -2.21456        -1.32514
            2860             345         2.63008         2.57397        -1.56823    -657.347E-03
            2861             208         5.17310         2.60688         4.86367         1.58055
            2861             319         4.53693         2.85725         3.34291         2.15404
            2862             274         5.03917         2.60922        -4.83582        -2.14776
            2862             312         4.75562         2.74073        -4.39961        -2.30750
            2863             244         2.69261         3.29244        -2.05320        -1.21129
            2863             341         3.19557         2.78927        -2.21456        -1.32514
            2864             240         3.37937         2.93381        -1.59969        -1.46613
            2864             341         3.19557         2.78927        -2.21456        -1.32514
            2865             328         1.77416         1.36476    -652.759E-03        -1.18419
            2865             379         2.00714         1.61627    -911.506E-03        -1.05882
            2866             373         1.95629         1.77263    -832.980E-03        -1.22790
            2866             438         1.85667         1.93073    -807.737E-03    -881.792E-03
            2867             249         3.31938         4.71322        -2.19129        -3.63509
            2867             288         3.91413         5.87290        -2.64472        -5.15064
            2868             208         5.17310         2.60688         4.86367         1.58055
            2868             319         4.53693         2.85725         3.34291         2.15404
            2869             254         4.25447         3.11484        -3.87909        -2.75551
            2869             333         3.86947         3.87756        -3.11233        -3.12042
            2870             273         2.36185         3.32644         1.70459         2.60344
            2870             323         2.76617         2.61547         1.99190         1.89368
            2871             137         2.77646         6.04181        -1.60522        -6.04181
            2871             322         3.16348         5.28920        -2.40784        -5.11084
            2872             276         2.58797         4.64743        -1.90899        -4.42572
            2872             307         3.42995         3.44024        -3.04874        -3.11646
            2873             307         3.42995         3.44024        -3.04874        -3.11646
            2873             362         2.89865         3.19913        -2.52753        -2.84195
            2874             135         3.71634         4.85798        -3.09119        -4.67988
            2874             137         2.77646         6.04181        -1.60522        -6.04181
            2875             135         3.71634         4.85798        -3.09119        -4.67988
            2875             318         3.35439         4.63949        -2.69175        -4.42389
            2876             137         2.77646         6.04181        -1.60522        -6.04181
            2876             209         2.69626         6.74407        -1.55253        -6.38800
            2877             273         2.36185         3.32644         1.70459         2.60344
            2877             418         2.11966         3.18766     706.474E-03         2.70360
            2878             320         5.23709         1.85079         4.46868         1.02881
            2878             360         2.96255         2.83876         1.42487         2.19041
            2879             165         1.79609         1.87152    -902.793E-03    -978.231E-03
            2879             244         2.69261         3.29244        -2.05320        -1.21129
            2880             295         2.11450         1.80720        -1.43002        -1.25271
            2880             396         2.39372         1.82202    -899.014E-03        -1.82202
            2881             126         3.08434         2.90726         3.05155         1.67248
            2881             323         2.76617         2.61547         1.99190         1.89368
            2882             313         3.76394         3.63599         3.14223         3.01059
            2882             387         1.57529         4.71420     450.579E-03         4.07667
            2883             218         3.06631         2.65817         3.06631         1.34225
            2883             326         2.03622         3.36726         1.57339         2.12626
            2884             226         4.01252         3.57903         3.23464         3.00584
            2884             339         3.23252         2.78167         2.02865         2.28598
            2885             238         3.64444         3.44806         2.52861         3.26320
            2885             370         3.79270         2.16647         2.98578         1.25532
            2886             232         1.73032         1.89672    -821.864E-03        -1.63039
            2886             347         1.81569         2.02305        -1.15889        -1.31204
            2887             507         2.28824         1.96786        -1.25295    -932.577E-03
            2887             576         2.47701         2.12224        -1.22283    -868.061E-03
            2888             218         3.06631         2.65817         3.06631         1.34225
            2888             260         2.18145         2.98298         1.14856         2.15567
            2889             342         2.75150         4.31775        -2.14122        -4.01555
            2889             365         2.31573         5.04107        -1.76843        -4.75050
            2890             115     960.316E-03     937.200E-03    -747.875E-03    -459.563E-03
            2890             327         1.36673         1.59403    -995.292E-03    -645.637E-03
            2891             330         3.03367         1.22239         2.24328     297.735E-03
            2891             337         2.55318         1.87806         1.44694     232.862E-03
            2892             336         2.37032         1.79452     85.4643E-03     888.421E-03
            2892             337         2.55318         1.87806         1.44694     232.862E-03
            2893             222         1.47704         1.66591    -802.283E-03        -1.50719
            2893             329         1.98241         1.56368    -809.588E-03        -1.56368
            2894             132         1.43049         2.00828    -996.715E-03        -1.57451
            2894             222         1.47704         1.66591    -802.283E-03        -1.50719
            2895             132         1.43049         2.00828    -996.715E-03        -1.57451
            2895             329         1.98241         1.56368    -809.588E-03        -1.56368
            2896             353         2.33750         2.01703     174.897E-03    -79.8585E-03
            2896             377         2.27216         2.36172    -559.434E-03    -469.873E-03
            2897             118         2.01846         2.17096         2.01846     601.055E-03
            2897             331         2.17698         1.99405         1.66664     566.929E-03
            2898             272         1.85881         2.31683         1.07653    -722.467E-03
            2898             332         2.28133         2.26813    -139.399E-03    -966.099E-03
            2899             224         2.14971         2.59628    -242.731E-03    -866.870E-03
            2899             332         2.28133         2.26813    -139.399E-03    -966.099E-03
            2900             224         2.14971         2.59628    -242.731E-03    -866.870E-03
            2900             231         3.25360         3.10835        -1.82432        -1.07504
            2901             263         3.24822         2.79472        -1.87623        -1.56678
            2901             361         2.36276         3.10361        -1.71576        -1.42353
            2902             296         1.84343         3.07437         1.39215         1.86848
            2902             297         2.48640         2.85014         2.09696         1.52235
            2903             388         1.58162         1.63767    -831.764E-03    -887.817E-03
            2903             452         1.49394         1.65564    -913.542E-03        -1.07524
            2904             372         5.74405         1.82675        -5.20866    -894.754E-03
            2904             444         4.25113         1.32267        -3.76812    -839.653E-03
            2905             229         1.91601         1.90070     147.146E-03         1.32240
            2905             293         1.90059         2.16881         1.37326     735.747E-03
            2906             247         3.42751         3.31829        -3.14354        -2.87436
            2906             335         3.15810         2.77864        -3.10989        -2.14816
            2907             336         2.37032         1.79452     85.4643E-03     888.421E-03
            2907             353         2.33750         2.01703     174.897E-03    -79.8585E-03
            2908             248         2.64852         4.63129         1.98096         3.96373
            2908             356         1.69581         4.38438     556.890E-03         3.72753
            2909              94         3.52319         6.28955        -2.27763        -5.37650
            2909             199         3.16077         4.30425        -2.41204        -3.92995
            2910             262         3.36720         2.56244        -1.32308        -1.89031
            2910             357         2.15855         2.51710        -2.14874    -904.197E-03
            2911             402         1.69734         3.29523         1.15037         1.78713
            2911             483         1.42023         3.10440    -582.247E-03         2.30259
            2912             316         3.68505         5.57508        -3.31157        -5.46754
            2912             343         4.31402         3.62426        -3.47839        -2.88020
            2913             256         4.55217         2.14607        -4.00545        -1.57280
            2913             367         5.07115         3.93701        -3.81479        -2.85603
            2914             272         1.85881         2.31683         1.07653    -722.467E-03
            2914             353         2.33750         2.01703     174.897E-03    -79.8585E-03
            2915             232         1.73032         1.89672    -821.864E-03        -1.63039
            2915             346         2.24602         1.66786        -1.47548        -1.07415
            2916             415         2.68420         3.21061         1.11483         2.57000
            2916             441         1.85184         3.19084     313.797E-03         1.69264
            2917             458         2.65765         1.95469        -1.15401        -1.17765
            2917             537         2.30688         1.73837    -918.725E-03        -1.55200
            2918             264         3.65098         3.39477         2.70739         2.76857
            2918             413         1.64049         4.87244     2.50138E-03         4.34210
            2919             382         4.79029         1.54752        -4.53200        -1.19657
            2919             414         4.84864         1.88082        -4.24221        -1.66204
            2920             287         1.46947         1.39510    -883.890E-03    -748.772E-03
            2920             390         1.76626         1.79990        -1.03429    -729.609E-03
            2921             266         2.43061         5.04727         1.48379         4.45527
            2921             411         1.67339         4.53267     383.206E-03         4.02453
            2922             294         1.71026         1.72542        -1.23041        -1.09039
            2922             395         1.87854         2.06718        -1.43339    -987.007E-03
            2923             270         3.65920         3.17900        -3.06158        -2.74207
            2923             450         4.57265         2.84626        -3.96512        -1.82659
            2924             282         4.12832         2.97463         3.80342         1.73486
            2924             363         3.60575         2.53699         2.65692         1.86152
            2925             289         2.57714         3.40844         2.51340         1.86223
            2925             368         2.23111         2.79467         1.72111         1.36735
            2926             242         3.05121         4.62503        -2.48337        -4.05720
            2926             243         3.67224         5.34044        -3.10472        -5.01426
            2927             477         1.77375         1.65304    -807.364E-03    -745.829E-03
            2927             503         2.00599         1.84388    -769.554E-03        -1.06174
            2928             302         3.58070         2.58841         3.45196         1.14787
            2928             404         3.67796         1.63336         3.13783     258.378E-03
            2929             354         2.47292         2.29160     255.318E-03         2.22629
            2929             417         2.08985         2.89157         1.13490         1.93662
            2930             288         3.91413         5.87290        -2.64472        -5.15064
            2930             348         4.38692         4.00718        -3.63617        -2.67911
            2931             354         2.47292         2.29160     255.318E-03         2.22629
            2931             417         2.08985         2.89157         1.13490         1.93662
            2932             291         1.06221         1.03538    -499.916E-03    -725.635E-03
            2932             388         1.58162         1.63767    -831.764E-03    -887.817E-03
            2933             329         1.98241         1.56368    -809.588E-03        -1.56368
            2933             369         1.81624         1.96633        -1.04136        -1.19145
            2934             271         3.65427         3.29137        -3.31588        -2.37908
            2934             351         4.00592         2.48155        -3.23715        -1.46547
            2935             225         2.02585         2.34017        -1.24542     240.092E-03
            2935             380         2.47340         1.76955        -1.08491     274.710E-03
            2936             534         3.28567         1.11126        -2.75812    -399.797E-03
            2936             578         3.03533         1.44272        -2.80443    -715.679E-03
            2937             474         2.61166         1.59500         1.57344     410.306E-03
            2937             513         2.50869         2.02711         1.98215     518.549E-03
            2938             363         3.60575         2.53699         2.65692         1.86152
            2938             466         3.03718         3.02074         2.17205         2.26612
            2939             253         1.54322         1.77182    -956.852E-03        -1.18545
            2939             328         1.77416         1.36476    -652.759E-03        -1.18419
            2940             251         3.71175         3.34818        -2.77023        -3.13379
            2940             252         4.61945         2.59073        -3.93663        -2.27132
            2941             252         4.61945         2.59073        -3.93663        -2.27132
            2941             352         2.37158         3.61769        -1.13098        -3.56255
            2942             225         2.02585         2.34017        -1.24542     240.092E-03
            2942             285         2.36598         1.50530    -420.815E-03     876.104E-03
            2943             502         3.19245         3.48437        -1.98640        -1.74517
            2943             559         2.97235         3.35240    -442.637E-03        -2.66346
            2944             290         2.41104         1.68744         1.49642     863.617E-03
            2944             393         2.21504         1.78474         1.12007     689.772E-03
            2945             262         3.36720         2.56244        -1.32308        -1.89031
            2945             263         3.24822         2.79472        -1.87623        -1.56678
            2946             346         2.24602         1.66786        -1.47548        -1.07415
            2946             378         2.46728         2.05805        -2.08833    -738.342E-03
            2947             316         3.68505         5.57508        -3.31157        -5.46754
            2947             321         3.23771         6.42084        -2.49129        -5.99355
            2948             260         2.18145         2.98298         1.14856         2.15567
            2948             326         2.03622         3.36726         1.57339         2.12626
            2949             231         3.25360         3.10835        -1.82432        -1.07504
            2949             332         2.28133         2.26813    -139.399E-03    -966.099E-03
            2950             238         3.64444         3.44806         2.52861         3.26320
            2950             383         3.30396         2.77779         2.43924         2.00045
            2951             452         1.49394         1.65564    -913.542E-03        -1.07524
            2951             458         2.65765         1.95469        -1.15401        -1.17765
            2952             268     951.745E-03         1.07433    -951.745E-03    -221.960E-03
            2952             357         2.15855         2.51710        -2.14874    -904.197E-03
            2953             439         5.31919         2.16350        -5.31919    -356.565E-03
            2953             453         4.00312         2.95312        -3.49804        -1.37739
            2954             345         2.63008         2.57397        -1.56823    -657.347E-03
            2954             380         2.47340         1.76955        -1.08491     274.710E-03
            2955             267         2.81688         2.63757        -1.65801        -2.16891
            2955             374         3.15117         2.05966        -2.20885        -1.11734
            2956             369         1.81624         1.96633        -1.04136        -1.19145
            2956             379         2.00714         1.61627    -911.506E-03        -1.05882
            2957             409         4.94262         1.88118        -4.58800        -1.52656
            2957             416         2.85527         4.45250        -2.39050        -4.29961
            2958             316         3.68505         5.57508        -3.31157        -5.46754
            2958             416         2.85527         4.45250        -2.39050        -4.29961
            2959             457         1.76465         1.73975    -831.572E-03    -581.264E-03
            2959             511         1.99269         1.95522        -1.08705    -512.049E-03
            2960             379         2.00714         1.61627    -911.506E-03        -1.05882
            2960             469         2.16646         1.95691        -1.11407    -904.524E-03
            2961             269         4.34320         3.26616        -3.82920        -2.75215
            2961             372         5.74405         1.82675        -5.20866    -894.754E-03
            2962             231         3.25360         3.10835        -1.82432        -1.07504
            2962             422         2.64232         2.57324        -1.65773    -860.778E-03
            2963             131         4.02447         5.17550        -2.40073        -5.17550
            2963             317         4.54178         5.34840        -3.17375        -4.99825
            2964             377         2.27216         2.36172    -559.434E-03    -469.873E-03
            2964             434         2.15607         2.51104    -634.043E-03    -279.070E-03
            2965             318         3.35439         4.63949        -2.69175        -4.42389
            2965             322         3.16348         5.28920        -2.40784        -5.11084
            2966             264         3.65098         3.39477         2.70739         2.76857
            2966             384         2.82467         3.40208         1.41782         2.88353
            2967             237         3.35341         3.69458         3.00305         2.75898
            2967             366         2.98356         2.97416         2.24977         1.94505
            2968             276         2.58797         4.64743        -1.90899        -4.42572
            2968             385         3.22459         3.27685        -2.76733        -2.96069
            2969             323         2.76617         2.61547         1.99190         1.89368
            2969             418         2.11966         3.18766     706.474E-03         2.70360
            2970             340         1.67711         4.30461     602.690E-03         3.54150
            2970             411         1.67339         4.53267     383.206E-03         4.02453
            2971             131         4.02447         5.17550        -2.40073        -5.17550
            2971             371         3.39837         3.84360        -2.69867        -2.80918
            2972             315         4.21274         2.83300         3.86728         1.95035
            2972             375         2.75500         3.09168         1.84552         1.97925
            2973             472         4.60263     888.215E-03        -4.28537    -377.572E-03
            2973             498         2.81707         1.70290        -1.91118    -983.621E-03
            2974             461         3.92435         1.15978         3.12424    -166.408E-03
            2974             512         3.12498         1.37018         1.47648    -126.044E-03
            2975             265         3.01821         2.64617         2.62364         1.29047
            2975             399         1.42920         3.42817     332.907E-03         2.43731
            2976             347         1.81569         2.02305        -1.15889        -1.31204
            2976             369         1.81624         1.96633        -1.04136        -1.19145
            2977             300         3.27430         2.57214         2.88480         1.26531
            2977             368         2.23111         2.79467         1.72111         1.36735
            2978             593         2.70089         1.90832    -321.912E-03    -64.3599E-03
            2978             594         2.79397         2.12172    -646.980E-03    -866.202E-03
            2979             381         2.64468         3.28195         1.53392         2.62762
            2979             486         3.10561         1.40359         1.95428     961.747E-03
            2980             229         1.91601         1.90070     147.146E-03         1.32240
            2980             392         2.34206         1.63853     342.698E-03     829.737E-03
            2981             469         2.16646         1.95691        -1.11407    -904.524E-03
            2981             507         2.28824         1.96786        -1.25295    -932.577E-03
            2982             286         1.95169         2.52448     697.496E-03         2.14952
            2982             398         2.56808         1.63110     596.867E-03         1.55833
            2983             292         2.62186         1.93713        -1.49677        -1.63150
            2983             396         2.39372         1.82202    -899.014E-03        -1.82202
            2984             286         1.95169         2.52448     697.496E-03         2.14952
            2984             296         1.84343         3.07437         1.39215         1.86848
            2985             280         2.71509         4.65915         2.05726         4.00132
            2985             381         2.64468         3.28195         1.53392         2.62762
            2986             278         3.32058         3.81985        -3.23673        -3.03143
            2986             407         2.97466         3.12049        -2.16734        -2.43123
            2987             360         2.96255         2.83876         1.42487         2.19041
            2987             375         2.75500         3.09168         1.84552         1.97925
            2988             116     614.464E-03     420.065E-03    -437.030E-03    -147.013E-03
            2988             259         1.05876     936.471E-03    -680.636E-03    -534.195E-03
            2989             429         4.01508         2.52517         3.64216         1.02613
            2989             494         3.14650         1.84170         2.50776     46.1827E-03
            2990             526         2.55163         1.88745    -167.515E-03    -940.943E-03
            2990             553         1.96580         2.46263    -295.683E-03        -1.29664
            2991             314         4.57351         2.87302        -4.18193        -2.21623
            2991             496         2.57824         3.61296        -2.14625        -2.94407
            2992             314         4.57351         2.87302        -4.18193        -2.21623
            2992             496         2.57824         3.61296        -2.14625        -2.94407
            2993             345         2.63008         2.57397        -1.56823    -657.347E-03
            2993             476         2.36829         1.79947    -981.073E-03    -763.391E-03
            2994             392         2.34206         1.63853     342.698E-03     829.737E-03
            2994             393         2.21504         1.78474         1.12007     689.772E-03
            2995             605         2.81576         2.56957    -715.348E-03    -587.064E-03
            2995             622         2.07612         2.83109     527.933E-03        -1.24529
            2996             237         3.35341         3.69458         3.00305         2.75898
            2996             381         2.64468         3.28195         1.53392         2.62762
            2997             237         3.35341         3.69458         3.00305         2.75898
            2997             305         3.27484         4.10393         2.45830         3.07935
            2998             409         4.94262         1.88118        -4.58800        -1.52656
            2998             473         3.25399         2.49453        -2.62468        -1.88793
            2999             235         3.51916         4.37874         3.03159         3.48939
            2999             429         4.01508         2.52517         3.64216         1.02613
            3000             474         2.61166         1.59500         1.57344     410.306E-03
            3000             572     807.148E-03         3.37936    -315.032E-03         1.62857
            3001             279         3.32183         3.84484         2.22606         3.60682
            3001             366         2.98356         2.97416         2.24977         1.94505
            3002             259         1.05876     936.471E-03    -680.636E-03    -534.195E-03
            3002             420         1.32733         1.22815    -809.989E-03    -670.040E-03
            3003             319         4.53693         2.85725         3.34291         2.15404
            3003             384         2.82467         3.40208         1.41782         2.88353
            3004             375         2.75500         3.09168         1.84552         1.97925
            3004             384         2.82467         3.40208         1.41782         2.88353
            3005             490         3.47902         1.60217        -2.83852        -1.20221
            3005             595         2.12737         2.70765     702.077E-03        -1.99047
            3006             404         3.67796         1.63336         3.13783     258.378E-03
            3006             405         3.16101         1.92363         2.17770     990.731E-03
            3007             277         3.02904         3.69065         2.17896         2.63411
            3007             303         3.74060         2.52271         3.31322         1.63630
            3008             277         3.02904         3.69065         2.17896         2.63411
            3008             386         3.87400         1.99196         3.05832     785.707E-03
            3009             370         3.79270         2.16647         2.98578         1.25532
            3009             386         3.87400         1.99196         3.05832     785.707E-03
            3010             412         3.27154         3.23561        -1.81588        -2.73053
            3010             453         4.00312         2.95312        -3.49804        -1.37739
            3011             432         1.77320         1.89316    -748.959E-03    -868.920E-03
            3011             552         2.10291         2.46883    -746.162E-03        -1.33100
            3012             292         2.62186         1.93713        -1.49677        -1.63150
            3012             298         2.62702         2.76261        -1.34151        -2.41994
            3013             448         1.92602         2.63645     322.249E-03     826.527E-03
            3013             454         2.08251         2.43135    -638.312E-03         1.89124
            3014             285         2.36598         1.50530    -420.815E-03     876.104E-03
            3014             389         2.05583         1.99400    -396.700E-03     691.487E-03
            3015             229         1.91601         1.90070     147.146E-03         1.32240
            3015             285         2.36598         1.50530    -420.815E-03     876.104E-03
            3016             393         2.21504         1.78474         1.12007     689.772E-03
            3016             471         2.58332         1.71709     868.604E-03     2.36707E-03
            3017             368         2.23111         2.79467         1.72111         1.36735
            3017             402         1.69734         3.29523         1.15037         1.78713
            3018             265         3.01821         2.64617         2.62364         1.29047
            3018             402         1.69734         3.29523         1.15037         1.78713
            3019             266         2.43061         5.04727         1.48379         4.45527
            3019             284         2.38907         4.93993         1.60352         4.48400
            3020             236         2.76986         3.38436        -1.99547        -2.36825
            3020             400         3.03686         2.59922        -1.53786        -2.04305
            3021             294         1.71026         1.72542        -1.23041        -1.09039
            3021             373         1.95629         1.77263    -832.980E-03        -1.22790
            3022             290         2.41104         1.68744         1.49642     863.617E-03
            3022             394         2.35662         1.55235     477.456E-03         1.51561
            3023             286         1.95169         2.52448     697.496E-03         2.14952
            3023             290         2.41104         1.68744         1.49642     863.617E-03
            3024             438         1.85667         1.93073    -807.737E-03    -881.792E-03
            3024             479         2.18726         1.97934    -520.192E-03        -1.51042
            3025             343         4.31402         3.62426        -3.47839        -2.88020
            3025             439         5.31919         2.16350        -5.31919    -356.565E-03
            3026             346         2.24602         1.66786        -1.47548        -1.07415
            3026             433         1.86296         2.29642        -1.36617    -766.116E-03
            3027             395         1.87854         2.06718        -1.43339    -987.007E-03
            3027             397         2.19472         1.94833        -1.16738        -1.63198
            3028             387         1.57529         4.71420     450.579E-03         4.07667
            3028             491         2.26771         2.93263     735.483E-03         1.82295
            3029             383         3.30396         2.77779         2.43924         2.00045
            3029             461         3.92435         1.15978         3.12424    -166.408E-03
            3030             371         3.39837         3.84360        -2.69867        -2.80918
            3030             439         5.31919         2.16350        -5.31919    -356.565E-03
            3031             297         2.48640         2.85014         2.09696         1.52235
            3031             338         1.99296         2.44856     580.128E-03         1.92975
            3032             297         2.48640         2.85014         2.09696         1.52235
            3032             399         1.42920         3.42817     332.907E-03         2.43731
            3033             233         3.80716         3.50838         3.27780         2.73898
            3033             301         3.35107         3.94820         3.08175         3.30522
            3034             236         2.76986         3.38436        -1.99547        -2.36825
            3034             298         2.62702         2.76261        -1.34151        -2.41994
            3035             298         2.62702         2.76261        -1.34151        -2.41994
            3035             400         3.03686         2.59922        -1.53786        -2.04305
            3036             350         3.93916         3.53676        -3.93916        -1.27136
            3036             401         3.39275         2.94597        -2.83963        -1.37674
            3037             236         2.76986         3.38436        -1.99547        -2.36825
            3037             401         3.39275         2.94597        -2.83963        -1.37674
            3038             378         2.46728         2.05805        -2.08833    -738.342E-03
            3038             433         1.86296         2.29642        -1.36617    -766.116E-03
            3039             453         4.00312         2.95312        -3.49804        -1.37739
            3039             508         3.19671         3.20695        -1.94289        -1.79161
            3040             458         2.65765         1.95469        -1.15401        -1.17765
            3040             475         2.83203         2.26365        -1.10724        -1.43939
            3041             420         1.32733         1.22815    -809.989E-03    -670.040E-03
            3041             436         1.96669         1.91928    -958.973E-03    -964.217E-03
            3042             550         2.16719         2.50075    -474.600E-03        -1.30748
            3042             552         2.10291         2.46883    -746.162E-03        -1.33100
            3043             386         3.87400         1.99196         3.05832     785.707E-03
            3043             404         3.67796         1.63336         3.13783     258.378E-03
            3044             536         2.26424         2.30434        -1.68677        -1.46897
            3044             609         3.00654         2.01607        -2.29369    -24.7155E-03
            3045             335         3.15810         2.77864        -3.10989        -2.14816
            3045             406         3.44490         2.46201        -2.81170        -2.33906
            3046             438         1.85667         1.93073    -807.737E-03    -881.792E-03
            3046             511         1.99269         1.95522        -1.08705    -512.049E-03
            3047             333         3.86947         3.87756        -3.11233        -3.12042
            3047             352         2.37158         3.61769        -1.13098        -3.56255
            3048             254         4.25447         3.11484        -3.87909        -2.75551
            3048             333         3.86947         3.87756        -3.11233        -3.12042
            3049             254         4.25447         3.11484        -3.87909        -2.75551
            3049             426         2.16723         3.57683        -1.63063        -2.88340
            3050             429         4.01508         2.52517         3.64216         1.02613
            3050             495         2.68474         2.33469         1.22385         1.05899
            3051             419         3.26018         2.69049        -2.24103        -1.67134
            3051             463         3.64052         1.81386        -1.92438        -1.29499
            3052             306         3.88380         3.88909         3.34458         2.77964
            3052             308         5.03613         2.24231         4.23849         1.64394
            3053             308         5.03613         2.24231         4.23849         1.64394
            3053             408         3.80602         2.11761         2.73806         1.82469
            3054             396         2.39372         1.82202    -899.014E-03        -1.82202
            3054             440         2.52887         2.16143    -892.863E-03        -1.61579
            3055             335         3.15810         2.77864        -3.10989        -2.14816
            3055             406         3.44490         2.46201        -2.81170        -2.33906
            3056             301         3.35107         3.94820         3.08175         3.30522
            3056             410         1.24929         4.91046     404.001E-03         4.35919
            3057             301         3.35107         3.94820         3.08175         3.30522
            3057             310         3.30483         4.09164         2.64105         3.19979
            3058             256         4.55217         2.14607        -4.00545        -1.57280
            3058             427         2.56301         3.38547        -2.01199        -2.66749
            3059             461         3.92435         1.15978         3.12424    -166.408E-03
            3059             462         3.69968         1.35786         3.09485    -16.8300E-03
            3060             321         3.23771         6.42084        -2.49129        -5.99355
            3060             416         2.85527         4.45250        -2.39050        -4.29961
            3061             352         2.37158         3.61769        -1.13098        -3.56255
            3061             568     930.682E-03         4.14890     385.529E-03        -3.83794
            3062             439         5.31919         2.16350        -5.31919    -356.565E-03
            3062             525         4.15489         2.70298        -4.15489    -470.242E-03
            3063             444         4.25113         1.32267        -3.76812    -839.653E-03
            3063             496         2.57824         3.61296        -2.14625        -2.94407
            3064             425         3.26739         1.39185         2.42621     180.511E-03
            3064             494         3.14650         1.84170         2.50776     46.1827E-03
            3065             275         2.94275         3.73864         2.56692         2.70352
            3065             415         2.68420         3.21061         1.11483         2.57000
            3066             257         1.66413         4.47485     602.091E-03         4.08271
            3066             275         2.94275         3.73864         2.56692         2.70352
            3067             257         1.66413         4.47485     602.091E-03         4.08271
            3067             273         2.36185         3.32644         1.70459         2.60344
            3068             314         4.57351         2.87302        -4.18193        -2.21623
            3068             450         4.57265         2.84626        -3.96512        -1.82659
            3069             468         2.18284         1.88133     165.898E-03    -114.719E-03
            3069             471         2.58332         1.71709     868.604E-03     2.36707E-03
            3070             115     960.316E-03     937.200E-03    -747.875E-03    -459.563E-03
            3070             259         1.05876     936.471E-03    -680.636E-03    -534.195E-03
            3071             327         1.36673         1.59403    -995.292E-03    -645.637E-03
            3071             420         1.32733         1.22815    -809.989E-03    -670.040E-03
            3072             324         3.42856         2.73173        -2.47798        -1.93801
            3072             419         3.26018         2.69049        -2.24103        -1.67134
            3073             324         3.42856         2.73173        -2.47798        -1.93801
            3073             412         3.27154         3.23561        -1.81588        -2.73053
            3074             115     960.316E-03     937.200E-03    -747.875E-03    -459.563E-03
            3074             420         1.32733         1.22815    -809.989E-03    -670.040E-03
            3075             260         2.18145         2.98298         1.14856         2.15567
            3075             354         2.47292         2.29160     255.318E-03         2.22629
            3076             260         2.18145         2.98298         1.14856         2.15567
            3076             421         2.59928         1.92997     795.905E-03         1.22980
            3077             337         2.55318         1.87806         1.44694     232.862E-03
            3077             421         2.59928         1.92997     795.905E-03         1.22980
            3078             352         2.37158         3.61769        -1.13098        -3.56255
            3078             426         2.16723         3.57683        -1.63063        -2.88340
            3079             408         3.80602         2.11761         2.73806         1.82469
            3079             429         4.01508         2.52517         3.64216         1.02613
            3080             450         4.57265         2.84626        -3.96512        -1.82659
            3080             496         2.57824         3.61296        -2.14625        -2.94407
            3081             456         3.27829         3.92995        -2.22360        -2.87526
            3081             465         3.06090         4.03771        -2.43816        -2.40505
            3082             349         3.10062         3.05985         2.49026         1.97682
            3082             425         3.26739         1.39185         2.42621     180.511E-03
            3083             364         4.07722         3.29366        -3.52746        -2.35702
            3083             445         3.85371         1.98912        -3.10792        -1.53193
            3084             340         1.67711         4.30461     602.690E-03         3.54150
            3084             497     918.019E-03         4.01329    -524.532E-03         3.61921
            3085             410         1.24929         4.91046     404.001E-03         4.35919
            3085             464         1.14278         3.52603    -140.986E-03         3.37510
            3086             375         2.75500         3.09168         1.84552         1.97925
            3086             384         2.82467         3.40208         1.41782         2.88353
            3087             355         3.94771         3.82345        -2.23118        -3.46062
            3087             465         3.06090         4.03771        -2.43816        -2.40505
            3088             525         4.15489         2.70298        -4.15489    -470.242E-03
            3088             564         3.86735         2.13079        -2.94477    -894.274E-03
            3089             363         3.60575         2.53699         2.65692         1.86152
            3089             466         3.03718         3.02074         2.17205         2.26612
            3090             241     768.676E-03         1.00904    -434.420E-03    -674.786E-03
            3090             452         1.49394         1.65564    -913.542E-03        -1.07524
            3091             437         3.22851         2.64695        -2.91722        -2.06466
            3091             603         1.99689         3.23509        -1.10342        -2.62230
            3092             403         2.39200         3.59381         1.46917         3.12040
            3092             464         1.14278         3.52603    -140.986E-03         3.37510
            3093             351         4.00592         2.48155        -3.23715        -1.46547
            3093             428         2.34167         2.69164        -1.06720        -1.73844
            3094             353         2.33750         2.01703     174.897E-03    -79.8585E-03
            3094             459         2.32454         2.03672    -564.716E-03     433.045E-03
            3095             453         4.00312         2.95312        -3.49804        -1.37739
            3095             508         3.19671         3.20695        -1.94289        -1.79161
            3096             399         1.42920         3.42817     332.907E-03         2.43731
            3096             402         1.69734         3.29523         1.15037         1.78713
            3097             391         2.47128         2.59839        -1.65182        -1.55218
            3097             449         2.56058         2.43274        -1.97181    -797.766E-03
            3098             391         2.47128         2.59839        -1.65182        -1.55218
            3098             440         2.52887         2.16143    -892.863E-03        -1.61579
            3099             336         2.37032         1.79452     85.4643E-03     888.421E-03
            3099             353         2.33750         2.01703     174.897E-03    -79.8585E-03
            3100             437         3.22851         2.64695        -2.91722        -2.06466
            3100             455         2.48790         2.58465        -2.18959        -2.16307
            3101             417         2.08985         2.89157         1.13490         1.93662
            3101             418         2.11966         3.18766     706.474E-03         2.70360
            3102             256         4.55217         2.14607        -4.00545        -1.57280
            3102             427         2.56301         3.38547        -2.01199        -2.66749
            3103             437         3.22851         2.64695        -2.91722        -2.06466
            3103             455         2.48790         2.58465        -2.18959        -2.16307
            3104             368         2.23111         2.79467         1.72111         1.36735
            3104             402         1.69734         3.29523         1.15037         1.78713
            3105             445         3.85371         1.98912        -3.10792        -1.53193
            3105             450         4.57265         2.84626        -3.96512        -1.82659
            3106             399         1.42920         3.42817     332.907E-03         2.43731
            3106             483         1.42023         3.10440    -582.247E-03         2.30259
            3107             454         2.08251         2.43135    -638.312E-03         1.89124
            3107             509         2.30217         2.18162    -544.376E-03     627.032E-03
            3108             555         2.64263         2.24920     215.103E-03    -179.580E-03
            3108             567         2.56556         2.22023    -791.225E-03    -21.1284E-03
            3109             381         2.64468         3.28195         1.53392         2.62762
            3109             515         3.27235         1.57224         2.61463     491.549E-03
            3110             539         2.81967         1.39664     562.433E-03     768.303E-03
            3110             541         2.93894         1.65948    -106.835E-03         1.09935
            3111             337         2.55318         1.87806         1.44694     232.862E-03
            3111             448         1.92602         2.63645     322.249E-03     826.527E-03
            3112             417         2.08985         2.89157         1.13490         1.93662
            3112             460         1.92555         2.59079    -539.571E-03         2.14977
            3113             502         3.19245         3.48437        -1.98640        -1.74517
            3113             556         2.69486         2.73823        -2.11560     35.0735E-03
            3114             354         2.47292         2.29160     255.318E-03         2.22629
            3114             460         1.92555         2.59079    -539.571E-03         2.14977
            3115             385         3.22459         3.27685        -2.76733        -2.96069
            3115             437         3.22851         2.64695        -2.91722        -2.06466
            3116             377         2.27216         2.36172    -559.434E-03    -469.873E-03
            3116             493         2.07338         2.86808    -803.376E-03    -986.572E-03
            3117             365         2.31573         5.04107        -1.76843        -4.75050
            3117             456         3.27829         3.92995        -2.22360        -2.87526
            3118             335         3.15810         2.77864        -3.10989        -2.14816
            3118             447         1.95717         2.88427        -1.90999        -2.21072
            3119             364         4.07722         3.29366        -3.52746        -2.35702
            3119             443         3.11799         3.36407        -2.42498        -2.67106
            3120             466         3.03718         3.02074         2.17205         2.26612
            3120             524         1.75623         2.84981     908.535E-03         2.30482
            3121             473         3.25399         2.49453        -2.62468        -1.88793
            3121             532         2.86079         2.66295        -1.87459    -552.066E-03
            3122             338         1.99296         2.44856     580.128E-03         1.92975
            3122             480         2.67656         2.16552     97.4594E-03         1.54833
            3123             338         1.99296         2.44856     580.128E-03         1.92975
            3123             481         2.34320         1.37134     388.969E-03     984.075E-03
            3124             401         3.39275         2.94597        -2.83963        -1.37674
            3124             482         2.87744         2.30959        -1.76159        -1.19374
            3125             450         4.57265         2.84626        -3.96512        -1.82659
            3125             531         1.83324         3.19730        -1.32601        -2.54295
            3126             358         1.65540         1.88307    -915.152E-03    -797.093E-03
            3126             432         1.77320         1.89316    -748.959E-03    -868.920E-03
            3127             444         4.25113         1.32267        -3.76812    -839.653E-03
            3127             472         4.60263     888.215E-03        -4.28537    -377.572E-03
            3128             372         5.74405         1.82675        -5.20866    -894.754E-03
            3128             472         4.60263     888.215E-03        -4.28537    -377.572E-03
            3129             397         2.19472         1.94833        -1.16738        -1.63198
            3129             440         2.52887         2.16143    -892.863E-03        -1.61579
            3130             397         2.19472         1.94833        -1.16738        -1.63198
            3130             446         2.07858         2.46155    -976.645E-03        -1.35962
            3131             407         2.97466         3.12049        -2.16734        -2.43123
            3131             501         1.05140         3.78658    -64.3808E-03        -3.36971
            3132             348         4.38692         4.00718        -3.63617        -2.67911
            3132             365         2.31573         5.04107        -1.76843        -4.75050
            3133             519         1.77714         2.16611    -859.380E-03    -805.609E-03
            3133             552         2.10291         2.46883    -746.162E-03        -1.33100
            3134             340         1.67711         4.30461     602.690E-03         3.54150
            3134             356         1.69581         4.38438     556.890E-03         3.72753
            3135             378         2.46728         2.05805        -2.08833    -738.342E-03
            3135             451         2.65610         2.04261        -1.63369        -1.06308
            3136             341         3.19557         2.78927        -2.21456        -1.32514
            3136             345         2.63008         2.57397        -1.56823    -657.347E-03
            3137             336         2.37032         1.79452     85.4643E-03     888.421E-03
            3137             337         2.55318         1.87806         1.44694     232.862E-03
            3138             547         2.44630         2.59353        -1.85471    -672.167E-03
            3138             594         2.79397         2.12172    -646.980E-03    -866.202E-03
            3139             341         3.19557         2.78927        -2.21456        -1.32514
            3139             458         2.65765         1.95469        -1.15401        -1.17765
            3140             373         1.95629         1.77263    -832.980E-03        -1.22790
            3140             479         2.18726         1.97934    -520.192E-03        -1.51042
            3141             403         2.39200         3.59381         1.46917         3.12040
            3141             410         1.24929         4.91046     404.001E-03         4.35919
            3142             427         2.56301         3.38547        -2.01199        -2.66749
            3142             523         2.16980         2.89036        -1.35235        -2.02070
            3143             354         2.47292         2.29160     255.318E-03         2.22629
            3143             421         2.59928         1.92997     795.905E-03         1.22980
            3144             421         2.59928         1.92997     795.905E-03         1.22980
            3144             454         2.08251         2.43135    -638.312E-03         1.89124
            3145             460         1.92555         2.59079    -539.571E-03         2.14977
            3145             587         2.70459         2.17916     175.710E-03     554.988E-03
            3146             453         4.00312         2.95312        -3.49804        -1.37739
            3146             525         4.15489         2.70298        -4.15489    -470.242E-03
            3147             389         2.05583         1.99400    -396.700E-03     691.487E-03
            3147             392         2.34206         1.63853     342.698E-03     829.737E-03
            3148             404         3.67796         1.63336         3.13783     258.378E-03
            3148             474         2.61166         1.59500         1.57344     410.306E-03
            3149             520         2.11083         2.50061    -925.492E-03        -1.09522
            3149             569         2.07532         2.26942        -1.36764        -1.13845
            3150             287         1.46947         1.39510    -883.890E-03    -748.772E-03
            3150             457         1.76465         1.73975    -831.572E-03    -581.264E-03
            3151             287         1.46947         1.39510    -883.890E-03    -748.772E-03
            3151             359         1.17805         1.32269    -555.771E-03    -818.848E-03
            3152             380         2.47340         1.76955        -1.08491     274.710E-03
            3152             389         2.05583         1.99400    -396.700E-03     691.487E-03
            3153             379         2.00714         1.61627    -911.506E-03        -1.05882
            3153             470         1.86555         1.94710    -817.680E-03    -899.232E-03
            3154             558         1.76980         1.86483    -350.985E-03        -1.02686
            3154             626         2.12919         1.61316    -657.495E-03    -713.553E-03
            3155             510         2.76019         1.53668    -341.499E-03     894.557E-03
            3155             584         2.67666         1.85884    -538.824E-03     769.331E-03
            3156             469         2.16646         1.95691        -1.11407    -904.524E-03
            3156             499         2.38007         1.85245        -1.12514    -597.512E-03
            3157             471         2.58332         1.71709     868.604E-03     2.36707E-03
            3157             527         2.04531         2.26074    -114.869E-03    -222.420E-03
            3158             451         2.65610         2.04261        -1.63369        -1.06308
            3158             463         3.64052         1.81386        -1.92438        -1.29499
            3159             441         1.85184         3.19084     313.797E-03         1.69264
            3159             487         2.05679         2.94478    -500.364E-03         2.65099
            3160             591         1.31270         2.65834    -553.751E-03     107.054E-03
            3160             612         2.03896         2.55984    -259.003E-03     262.763E-03
            3161             431         2.35523         2.84775        -1.52162        -1.15604
            3161             493         2.07338         2.86808    -803.376E-03    -986.572E-03
            3162             377         2.27216         2.36172    -559.434E-03    -469.873E-03
            3162             434         2.15607         2.51104    -634.043E-03    -279.070E-03
            3163             350         3.93916         3.53676        -3.93916        -1.27136
            3163             465         3.06090         4.03771        -2.43816        -2.40505
            3164             350         3.93916         3.53676        -3.93916        -1.27136
            3164             430         2.63226         3.38781        -1.07883        -2.83469
            3165             341         3.19557         2.78927        -2.21456        -1.32514
            3165             475         2.83203         2.26365        -1.10724        -1.43939
            3166             233         3.80716         3.50838         3.27780         2.73898
            3166             466         3.03718         3.02074         2.17205         2.26612
            3167             233         3.80716         3.50838         3.27780         2.73898
            3167             403         2.39200         3.59381         1.46917         3.12040
            3168             568     930.682E-03         4.14890     385.529E-03        -3.83794
            3168             606         1.47360         2.96505     912.261E-03        -2.38329
            3169             386         3.87400         1.99196         3.05832     785.707E-03
            3169             467         3.07625         1.95992         2.02901     912.680E-03
            3170             461         3.92435         1.15978         3.12424    -166.408E-03
            3170             467         3.07625         1.95992         2.02901     912.680E-03
            3171             472         4.60263     888.215E-03        -4.28537    -377.572E-03
            3171             490         3.47902         1.60217        -2.83852        -1.20221
            3172             373         1.95629         1.77263    -832.980E-03        -1.22790
            3172             395         1.87854         2.06718        -1.43339    -987.007E-03
            3173             395         1.87854         2.06718        -1.43339    -987.007E-03
            3173             479         2.18726         1.97934    -520.192E-03        -1.51042
            3174             500         1.80695         2.81907        -1.29753        -1.59674
            3174             604         2.12133         2.06139    -898.388E-03    -503.980E-03
            3175             337         2.55318         1.87806         1.44694     232.862E-03
            3175             510         2.76019         1.53668    -341.499E-03     894.557E-03
            3176             471         2.58332         1.71709     868.604E-03     2.36707E-03
            3176             539         2.81967         1.39664     562.433E-03     768.303E-03
            3177             405         3.16101         1.92363         2.17770     990.731E-03
            3177             484         2.74897         1.45800         1.68799     313.677E-03
            3178             520         2.11083         2.50061    -925.492E-03        -1.09522
            3178             552         2.10291         2.46883    -746.162E-03        -1.33100
            3179             440         2.52887         2.16143    -892.863E-03        -1.61579
            3179             546         2.79800         2.09337        -1.55027    -845.641E-03
            3180             462         3.69968         1.35786         3.09485    -16.8300E-03
            3180             515         3.27235         1.57224         2.61463     491.549E-03
            3181             535         2.98659         1.76292    -797.897E-03        -1.62656
            3181             614         2.60561         1.95016    -850.523E-03    -558.469E-03
            3182             414         4.84864         1.88082        -4.24221        -1.66204
            3182             490         3.47902         1.60217        -2.83852        -1.20221
            3183             414         4.84864         1.88082        -4.24221        -1.66204
            3183             473         3.25399         2.49453        -2.62468        -1.88793
            3184             463         3.64052         1.81386        -1.92438        -1.29499
            3184             492         3.60149         2.66072        -1.79718        -2.11023
            3185             336         2.37032         1.79452     85.4643E-03     888.421E-03
            3185             510         2.76019         1.53668    -341.499E-03     894.557E-03
            3186             432         1.77320         1.89316    -748.959E-03    -868.920E-03
            3186             436         1.96669         1.91928    -958.973E-03    -964.217E-03
            3187             387         1.57529         4.71420     450.579E-03         4.07667
            3187             413         1.64049         4.87244     2.50138E-03         4.34210
            3188             494         3.14650         1.84170         2.50776     46.1827E-03
            3188             575         2.73178         2.03152         2.46073        -1.87649
            3189             291         1.06221         1.03538    -499.916E-03    -725.635E-03
            3189             359         1.17805         1.32269    -555.771E-03    -818.848E-03
            3190             291         1.06221         1.03538    -499.916E-03    -725.635E-03
            3190             477         1.77375         1.65304    -807.364E-03    -745.829E-03
            3191             389         2.05583         1.99400    -396.700E-03     691.487E-03
            3191             478         2.45356         1.66602        -1.09139     240.935E-03
            3192             401         3.39275         2.94597        -2.83963        -1.37674
            3192             430         2.63226         3.38781        -1.07883        -2.83469
            3193             358         1.65540         1.88307    -915.152E-03    -797.093E-03
            3193             519         1.77714         2.16611    -859.380E-03    -805.609E-03
            3194             449         2.56058         2.43274        -1.97181    -797.766E-03
            3194             482         2.87744         2.30959        -1.76159        -1.19374
            3195             338         1.99296         2.44856     580.128E-03         1.92975
            3195             399         1.42920         3.42817     332.907E-03         2.43731
            3196             486         3.10561         1.40359         1.95428     961.747E-03
            3196             530         2.77679         1.52082         1.63169    -585.232E-03
            3197             442         2.01805         2.24304     829.694E-03         1.05468
            3197             484         2.74897         1.45800         1.68799     313.677E-03
            3198             555         2.64263         2.24920     215.103E-03    -179.580E-03
            3198             575         2.73178         2.03152         2.46073        -1.87649
            3199             511         1.99269         1.95522        -1.08705    -512.049E-03
            3199             543         1.93067         2.00381    -731.747E-03    -672.010E-03
            3200             499         2.38007         1.85245        -1.12514    -597.512E-03
            3200             631         2.24628         1.72390    -785.459E-03    -559.123E-03
            3201             606         1.47360         2.96505     912.261E-03        -2.38329
            3201             613         2.02512         2.53428     21.8800E-03        -1.11977
            3202             405         3.16101         1.92363         2.17770     990.731E-03
            3202             474         2.61166         1.59500         1.57344     410.306E-03
            3203             335         3.15810         2.77864        -3.10989        -2.14816
            3203             485         1.49386         3.42648    -593.837E-03        -3.38201
            3204             615         1.97752         1.74351    -892.533E-03    -422.520E-03
            3204             616         1.75751         2.10952    -541.508E-03    -806.940E-03
            3205             411         1.67339         4.53267     383.206E-03         4.02453
            3205             522         1.24166         3.75347    -111.630E-03         3.28746
            3206             464         1.14278         3.52603    -140.986E-03         3.37510
            3206             601         1.83881         2.09591    -6.42217E-03         1.39060
            3207             339         3.23252         2.78167         2.02865         2.28598
            3207             486         3.10561         1.40359         1.95428     961.747E-03
            3208             339         3.23252         2.78167         2.02865         2.28598
            3208             425         3.26739         1.39185         2.42621     180.511E-03
            3209             360         2.96255         2.83876         1.42487         2.19041
            3209             415         2.68420         3.21061         1.11483         2.57000
            3210             415         2.68420         3.21061         1.11483         2.57000
            3210             487         2.05679         2.94478    -500.364E-03         2.65099
            3211             416         2.85527         4.45250        -2.39050        -4.29961
            3211             521         3.29786         3.29481        -2.73795        -2.40367
            3212             416         2.85527         4.45250        -2.39050        -4.29961
            3212             489         4.22581         2.06146        -3.78565        -1.12842
            3213             473         3.25399         2.49453        -2.62468        -1.88793
            3213             489         4.22581         2.06146        -3.78565        -1.12842
            3214             360         2.96255         2.83876         1.42487         2.19041
            3214             533         1.24266         3.36903    -549.165E-03         2.71538
            3215             437         3.22851         2.64695        -2.91722        -2.06466
            3215             506         3.69553         2.60242        -2.82307    -890.696E-03
            3216             412         3.27154         3.23561        -1.81588        -2.73053
            3216             492         3.60149         2.66072        -1.79718        -2.11023
            3217             384         2.82467         3.40208         1.41782         2.88353
            3217             413         1.64049         4.87244     2.50138E-03         4.34210
            3218             384         2.82467         3.40208         1.41782         2.88353
            3218             491         2.26771         2.93263     735.483E-03         1.82295
            3219             412         3.27154         3.23561        -1.81588        -2.73053
            3219             453         4.00312         2.95312        -3.49804        -1.37739
            3220             519         1.77714         2.16611    -859.380E-03    -805.609E-03
            3220             561         1.81055         2.20807    -664.456E-03        -1.03810
            3221             424         1.13668         3.84248    -112.253E-03         2.98568
            3221             497     918.019E-03         4.01329    -524.532E-03         3.61921
            3222             566         2.40322         2.08793    -961.802E-03     352.102E-03
            3222             619         1.84813         2.04693     424.518E-03    -762.986E-03
            3223             268     951.745E-03         1.07433    -951.745E-03    -221.960E-03
            3223             569         2.07532         2.26942        -1.36764        -1.13845
            3224             503         2.00599         1.84388    -769.554E-03        -1.06174
            3224             537         2.30688         1.73837    -918.725E-03        -1.55200
            3225             429         4.01508         2.52517         3.64216         1.02613
            3225             494         3.14650         1.84170         2.50776     46.1827E-03
            3226             487         2.05679         2.94478    -500.364E-03         2.65099
            3226             580         2.63716         2.05250     714.335E-03    -295.885E-03
            3227             487         2.05679         2.94478    -500.364E-03         2.65099
            3227             533         1.24266         3.36903    -549.165E-03         2.71538
            3228             356         1.69581         4.38438     556.890E-03         3.72753
            3228             497     918.019E-03         4.01329    -524.532E-03         3.61921
            3229             611         2.97029         2.34087    -902.420E-03    -139.398E-03
            3229             622         2.07612         2.83109     527.933E-03        -1.24529
            3230             375         2.75500         3.09168         1.84552         1.97925
            3230             533         1.24266         3.36903    -549.165E-03         2.71538
            3231             510         2.76019         1.53668    -341.499E-03     894.557E-03
            3231             598         2.45939         1.85803    -251.648E-03    -168.344E-03
            3232             577         2.29113         2.58236    -168.918E-03     667.029E-03
            3232             580         2.63716         2.05250     714.335E-03    -295.885E-03
            3233             376         1.60382         1.58609        -1.01046    -678.532E-03
            3233             520         2.11083         2.50061    -925.492E-03        -1.09522
            3234             588         3.25553         2.36340    -944.115E-03        -1.43140
            3234             611         2.97029         2.34087    -902.420E-03    -139.398E-03
            3235             546         2.79800         2.09337        -1.55027    -845.641E-03
            3235             608         2.54599         1.76442    -449.441E-03        -1.04393
            3236             386         3.87400         1.99196         3.05832     785.707E-03
            3236             467         3.07625         1.95992         2.02901     912.680E-03
            3237             582         2.25099         2.41779        -1.26020    -693.671E-03
            3237             617         2.30200         2.15389    -779.864E-03    -631.746E-03
            3238             343         4.31402         3.62426        -3.47839        -2.88020
            3238             416         2.85527         4.45250        -2.39050        -4.29961
            3239             543         1.93067         2.00381    -731.747E-03    -672.010E-03
            3239             579         1.67195         2.34495    -931.834E-03        -1.10843
            3240             410         1.24929         4.91046     404.001E-03         4.35919
            3240             411         1.67339         4.53267     383.206E-03         4.02453
            3241             347         1.81569         2.02305        -1.15889        -1.31204
            3241             507         2.28824         1.96786        -1.25295    -932.577E-03
            3242             452         1.49394         1.65564    -913.542E-03        -1.07524
            3242             503         2.00599         1.84388    -769.554E-03        -1.06174
            3243             452         1.49394         1.65564    -913.542E-03        -1.07524
            3243             458         2.65765         1.95469        -1.15401        -1.17765
            3244             440         2.52887         2.16143    -892.863E-03        -1.61579
            3244             573         2.76010         1.91682    -946.571E-03    -945.470E-03
            3245             386         3.87400         1.99196         3.05832     785.707E-03
            3245             513         2.50869         2.02711         1.98215     518.549E-03
            3246             576         2.47701         2.12224        -1.22283    -868.061E-03
            3246             585         2.50660         1.90487        -1.21154        -1.11857
            3247             454         2.08251         2.43135    -638.312E-03         1.89124
            3247             460         1.92555         2.59079    -539.571E-03         2.14977
            3248             360         2.96255         2.83876         1.42487         2.19041
            3248             375         2.75500         3.09168         1.84552         1.97925
            3249             428         2.34167         2.69164        -1.06720        -1.73844
            3249             501         1.05140         3.78658    -64.3808E-03        -3.36971
            3250             502         3.19245         3.48437        -1.98640        -1.74517
            3250             506         3.69553         2.60242        -2.82307    -890.696E-03
            3251             434         2.15607         2.51104    -634.043E-03    -279.070E-03
            3251             459         2.32454         2.03672    -564.716E-03     433.045E-03
            3252             615         1.97752         1.74351    -892.533E-03    -422.520E-03
            3252             616         1.75751         2.10952    -541.508E-03    -806.940E-03
            3253             562         2.15766         2.38842     139.262E-03     891.220E-03
            3253             589         2.57520         2.16180         1.84079    -733.800E-03
            3254             547         2.44630         2.59353        -1.85471    -672.167E-03
            3254             610         2.16710         2.77264        -2.02997     205.551E-03
            3255             508         3.19671         3.20695        -1.94289        -1.79161
            3255             588         3.25553         2.36340    -944.115E-03        -1.43140
            3256             491         2.26771         2.93263     735.483E-03         1.82295
            3256             589         2.57520         2.16180         1.84079    -733.800E-03
            3257             447         1.95717         2.88427        -1.90999        -2.21072
            3257             536         2.26424         2.30434        -1.68677        -1.46897
            3258             532         2.86079         2.66295        -1.87459    -552.066E-03
            3258             542         2.21069         2.97310     246.918E-03     96.6032E-03
            3259             481         2.34320         1.37134     388.969E-03     984.075E-03
            3259             541         2.93894         1.65948    -106.835E-03         1.09935
            3260             455         2.48790         2.58465        -2.18959        -2.16307
            3260             603         1.99689         3.23509        -1.10342        -2.62230
            3261             512         3.12498         1.37018         1.47648    -126.044E-03
            3261             528         2.64854         1.74853         1.44467    -98.4942E-03
            3262             512         3.12498         1.37018         1.47648    -126.044E-03
            3262             528         2.64854         1.74853         1.44467    -98.4942E-03
            3263             425         3.26739         1.39185         2.42621     180.511E-03
            3263             530         2.77679         1.52082         1.63169    -585.232E-03
            3264             357         2.15855         2.51710        -2.14874    -904.197E-03
            3264             569         2.07532         2.26942        -1.36764        -1.13845
            3265             478         2.45356         1.66602        -1.09139     240.935E-03
            3265             538         2.55579         1.66464        -1.17885     216.823E-03
            3266             468         2.18284         1.88133     165.898E-03    -114.719E-03
            3266             478         2.45356         1.66602        -1.09139     240.935E-03
            3267             474         2.61166         1.59500         1.57344     410.306E-03
            3267             545         2.05372         1.68709     153.407E-03     842.322E-03
            3268             476         2.36829         1.79947    -981.073E-03    -763.391E-03
            3268             478         2.45356         1.66602        -1.09139     240.935E-03
            3269             492         3.60149         2.66072        -1.79718        -2.11023
            3269             517         3.40158         2.14064    -824.888E-03        -2.14064
            3270             492         3.60149         2.66072        -1.79718        -2.11023
            3270             508         3.19671         3.20695        -1.94289        -1.79161
            3271             540         2.56454         2.13708    -918.855E-03        -1.11097
            3271             573         2.76010         1.91682    -946.571E-03    -945.470E-03
            3272             447         1.95717         2.88427        -1.90999        -2.21072
            3272             549         1.47887         2.87139    -326.156E-03        -2.50250
            3273             500         1.80695         2.81907        -1.29753        -1.59674
            3273             568     930.682E-03         4.14890     385.529E-03        -3.83794
            3274             500         1.80695         2.81907        -1.29753        -1.59674
            3274             613         2.02512         2.53428     21.8800E-03        -1.11977
            3275             465         3.06090         4.03771        -2.43816        -2.40505
            3275             559         2.97235         3.35240    -442.637E-03        -2.66346
            3276             376         1.60382         1.58609        -1.01046    -678.532E-03
            3276             436         1.96669         1.91928    -958.973E-03    -964.217E-03
            3277             427         2.56301         3.38547        -2.01199        -2.66749
            3277             563         2.35723         2.87327        -1.57937        -2.24243
            3278             614         2.60561         1.95016    -850.523E-03    -558.469E-03
            3278             629         2.26521         2.57829        -1.35995    -80.6696E-03
            3279             428         2.34167         2.69164        -1.06720        -1.73844
            3279             523         2.16980         2.89036        -1.35235        -2.02070
            3280             496         2.57824         3.61296        -2.14625        -2.94407
            3280             578         3.03533         1.44272        -2.80443    -715.679E-03
            3281             472         4.60263     888.215E-03        -4.28537    -377.572E-03
            3281             534         3.28567         1.11126        -2.75812    -399.797E-03
            3282             557         2.52021         1.94576    -768.159E-03     364.410E-03
            3282             624         2.27714         2.65154    -366.317E-03    -20.5090E-03
            3283             521         3.29786         3.29481        -2.73795        -2.40367
            3283             525         4.15489         2.70298        -4.15489    -470.242E-03
            3284             612         2.03896         2.55984    -259.003E-03     262.763E-03
            3284             624         2.27714         2.65154    -366.317E-03    -20.5090E-03
            3285             519         1.77714         2.16611    -859.380E-03    -805.609E-03
            3285             565         1.90387         1.89401    -963.981E-03    -460.181E-03
            3286             435         1.98077         3.08933     871.489E-03         1.98005
            3286             497     918.019E-03         4.01329    -524.532E-03         3.61921
            3287             488         1.64983         3.48106     692.594E-03         1.72631
            3287             577         2.29113         2.58236    -168.918E-03     667.029E-03
            3288             364         4.07722         3.29366        -3.52746        -2.35702
            3288             443         3.11799         3.36407        -2.42498        -2.67106
            3289             451         2.65610         2.04261        -1.63369        -1.06308
            3289             585         2.50660         1.90487        -1.21154        -1.11857
            3290             436         1.96669         1.91928    -958.973E-03    -964.217E-03
            3290             552         2.10291         2.46883    -746.162E-03        -1.33100
            3291             475         2.83203         2.26365        -1.10724        -1.43939
            3291             476         2.36829         1.79947    -981.073E-03    -763.391E-03
            3292             529         1.48693         3.03819    -159.187E-03     791.655E-03
            3292             560         1.34850         3.28253    -589.552E-03     41.6504E-03
            3293             462         3.69968         1.35786         3.09485    -16.8300E-03
            3293             528         2.64854         1.74853         1.44467    -98.4942E-03
            3294             485         1.49386         3.42648    -593.837E-03        -3.38201
            3294             549         1.47887         2.87139    -326.156E-03        -2.50250
            3295             546         2.79800         2.09337        -1.55027    -845.641E-03
            3295             594         2.79397         2.12172    -646.980E-03    -866.202E-03
            3296             427         2.56301         3.38547        -2.01199        -2.66749
            3296             443         3.11799         3.36407        -2.42498        -2.67106
            3297             488         1.64983         3.48106     692.594E-03         1.72631
            3297             542         2.21069         2.97310     246.918E-03     96.6032E-03
            3298             442         2.01805         2.24304     829.694E-03         1.05468
            3298             483         1.42023         3.10440    -582.247E-03         2.30259
            3299             442         2.01805         2.24304     829.694E-03         1.05468
            3299             529         1.48693         3.03819    -159.187E-03     791.655E-03
            3300             582         2.25099         2.41779        -1.26020    -693.671E-03
            3300             629         2.26521         2.57829        -1.35995    -80.6696E-03
            3301             599         1.90163         2.37999    -467.391E-03        -1.21284
            3301             620         2.25880         2.08938     987.254E-03        -1.03629
            3302             516         1.98184         1.95745        -1.33617    -430.600E-03
            3302             579         1.67195         2.34495    -931.834E-03        -1.10843
            3303             507         2.28824         1.96786        -1.25295    -932.577E-03
            3303             582         2.25099         2.41779        -1.26020    -693.671E-03
            3304             463         3.64052         1.81386        -1.92438        -1.29499
            3304             535         2.98659         1.76292    -797.897E-03        -1.62656
            3305             463         3.64052         1.81386        -1.92438        -1.29499
            3305             517         3.40158         2.14064    -824.888E-03        -2.14064
            3306             495         2.68474         2.33469         1.22385         1.05899
            3306             567         2.56556         2.22023    -791.225E-03    -21.1284E-03
            3307             523         2.16980         2.89036        -1.35235        -2.02070
            3307             567         2.56556         2.22023    -791.225E-03    -21.1284E-03
            3308             573         2.76010         1.91682    -946.571E-03    -945.470E-03
            3308             608         2.54599         1.76442    -449.441E-03        -1.04393
            3309             573         2.76010         1.91682    -946.571E-03    -945.470E-03
            3309             621         2.28425         2.10927    -297.817E-03    -974.090E-03
            3310             476         2.36829         1.79947    -981.073E-03    -763.391E-03
            3310             537         2.30688         1.73837    -918.725E-03        -1.55200
            3311             468         2.18284         1.88133     165.898E-03    -114.719E-03
            3311             538         2.55579         1.66464        -1.17885     216.823E-03
            3312             394         2.35662         1.55235     477.456E-03         1.51561
            3312             539         2.81967         1.39664     562.433E-03     768.303E-03
            3313             398         2.56808         1.63110     596.867E-03         1.55833
            3313             539         2.81967         1.39664     562.433E-03     768.303E-03
            3314             398         2.56808         1.63110     596.867E-03         1.55833
            3314             481         2.34320         1.37134     388.969E-03     984.075E-03
            3315             552         2.10291         2.46883    -746.162E-03        -1.33100
            3315             561         1.81055         2.20807    -664.456E-03        -1.03810
            3316             446         2.07858         2.46155    -976.645E-03        -1.35962
            3316             479         2.18726         1.97934    -520.192E-03        -1.51042
            3317             479         2.18726         1.97934    -520.192E-03        -1.51042
            3317             540         2.56454         2.13708    -918.855E-03        -1.11097
            3318             474         2.61166         1.59500         1.57344     410.306E-03
            3318             545         2.05372         1.68709     153.407E-03     842.322E-03
            3319             518         2.01770         1.75690         1.14899    -325.602E-03
            3319             545         2.05372         1.68709     153.407E-03     842.322E-03
            3320             556         2.69486         2.73823        -2.11560     35.0735E-03
            3320             609         3.00654         2.01607        -2.29369    -24.7155E-03
            3321             477         1.77375         1.65304    -807.364E-03    -745.829E-03
            3321             543         1.93067         2.00381    -731.747E-03    -672.010E-03
            3322             477         1.77375         1.65304    -807.364E-03    -745.829E-03
            3322             503         2.00599         1.84388    -769.554E-03        -1.06174
            3323             546         2.79800         2.09337        -1.55027    -845.641E-03
            3323             547         2.44630         2.59353        -1.85471    -672.167E-03
            3324             447         1.95717         2.88427        -1.90999        -2.21072
            3324             485         1.49386         3.42648    -593.837E-03        -3.38201
            3325             480         2.67656         2.16552     97.4594E-03         1.54833
            3325             548         2.11975         2.86196        -1.11936         1.60561
            3326             482         2.87744         2.30959        -1.76159        -1.19374
            3326             547         2.44630         2.59353        -1.85471    -672.167E-03
            3327             482         2.87744         2.30959        -1.76159        -1.19374
            3327             544         2.65915         2.32814        -1.55583        -1.22483
            3328             440         2.52887         2.16143    -892.863E-03        -1.61579
            3328             546         2.79800         2.09337        -1.55027    -845.641E-03
            3329             523         2.16980         2.89036        -1.35235        -2.02070
            3329             623         1.37047         2.85702    -156.567E-03        -1.93791
            3330             480         2.67656         2.16552     97.4594E-03         1.54833
            3330             483         1.42023         3.10440    -582.247E-03         2.30259
            3331             483         1.42023         3.10440    -582.247E-03         2.30259
            3331             548         2.11975         2.86196        -1.11936         1.60561
            3332             542         2.21069         2.97310     246.918E-03     96.6032E-03
            3332             595         2.12737         2.70765     702.077E-03        -1.99047
            3333             530         2.77679         1.52082         1.63169    -585.232E-03
            3333             575         2.73178         2.03152         2.46073        -1.87649
            3334             431         2.35523         2.84775        -1.52162        -1.15604
            3334             550         2.16719         2.50075    -474.600E-03        -1.30748
            3335             431         2.35523         2.84775        -1.52162        -1.15604
            3335             520         2.11083         2.50061    -925.492E-03        -1.09522
            3336             499         2.38007         1.85245        -1.12514    -597.512E-03
            3336             565         1.90387         1.89401    -963.981E-03    -460.181E-03
            3337             489         4.22581         2.06146        -3.78565        -1.12842
            3337             551         2.49250         3.10886        -1.09660        -2.07209
            3338             532         2.86079         2.66295        -1.87459    -552.066E-03
            3338             551         2.49250         3.10886        -1.09660        -2.07209
            3339             575         2.73178         2.03152         2.46073        -1.87649
            3339             606         1.47360         2.96505     912.261E-03        -2.38329
            3340             493         2.07338         2.86808    -803.376E-03    -986.572E-03
            3340             553         1.96580         2.46263    -295.683E-03        -1.29664
            3341             493         2.07338         2.86808    -803.376E-03    -986.572E-03
            3341             550         2.16719         2.50075    -474.600E-03        -1.30748
            3342             527         2.04531         2.26074    -114.869E-03    -222.420E-03
            3342             554         2.18378         2.11726     353.150E-03    -238.611E-03
            3343             539         2.81967         1.39664     562.433E-03     768.303E-03
            3343             554         2.18378         2.11726     353.150E-03    -238.611E-03
            3344             512         3.12498         1.37018         1.47648    -126.044E-03
            3344             557         2.52021         1.94576    -768.159E-03     364.410E-03
            3345             598         2.45939         1.85803    -251.648E-03    -168.344E-03
            3345             637         2.48018         1.69615    -441.997E-03    -88.3324E-03
            3346             546         2.79800         2.09337        -1.55027    -845.641E-03
            3346             594         2.79397         2.12172    -646.980E-03    -866.202E-03
            3347             553         1.96580         2.46263    -295.683E-03        -1.29664
            3347             561         1.81055         2.20807    -664.456E-03        -1.03810
            3348             581         2.14384         1.73343        -1.00368    -332.366E-03
            3348             592         2.07558         1.97095    -740.027E-03    -458.194E-03
            3349             571         1.82812         1.50746        -1.10455    -382.194E-03
            3349             615         1.97752         1.74351    -892.533E-03    -422.520E-03
            3350             536         2.26424         2.30434        -1.68677        -1.46897
            3350             549         1.47887         2.87139    -326.156E-03        -2.50250
            3351             486         3.10561         1.40359         1.95428     961.747E-03
            3351             574         2.82946         1.41469         1.59030    -181.765E-03
            3352             534         3.28567         1.11126        -2.75812    -399.797E-03
            3352             640         2.67037         1.45827        -2.20092     550.987E-03
            3353             430         2.63226         3.38781        -1.07883        -2.83469
            3353             465         3.06090         4.03771        -2.43816        -2.40505
            3354             430         2.63226         3.38781        -1.07883        -2.83469
            3354             559         2.97235         3.35240    -442.637E-03        -2.66346
            3355             623         1.37047         2.85702    -156.567E-03        -1.93791
            3355             643         1.59636         2.51948        -1.00134        -1.56700
            3356             538         2.55579         1.66464        -1.17885     216.823E-03
            3356             592         2.07558         1.97095    -740.027E-03    -458.194E-03
            3357             598         2.45939         1.85803    -251.648E-03    -168.344E-03
            3357             627         1.97165         2.00654    -987.457E-03    -349.899E-03
            3358             514         2.10570         1.83308    -694.452E-03    -905.872E-03
            3358             571         1.82812         1.50746        -1.10455    -382.194E-03
            3359             511         1.99269         1.95522        -1.08705    -512.049E-03
            3359             571         1.82812         1.50746        -1.10455    -382.194E-03
            3360             498         2.81707         1.70290        -1.91118    -983.621E-03
            3360             595         2.12737         2.70765     702.077E-03        -1.99047
            3361             426         2.16723         3.57683        -1.63063        -2.88340
            3361             568     930.682E-03         4.14890     385.529E-03        -3.83794
            3362             489         4.22581         2.06146        -3.78565        -1.12842
            3362             564         3.86735         2.13079        -2.94477    -894.274E-03
            3363             489         4.22581         2.06146        -3.78565        -1.12842
            3363             551         2.49250         3.10886        -1.09660        -2.07209
            3364             592         2.07558         1.97095    -740.027E-03    -458.194E-03
            3364             615         1.97752         1.74351    -892.533E-03    -422.520E-03
            3365             504         2.23378         2.54323    -830.647E-03         1.17781
            3365             509         2.30217         2.18162    -544.376E-03     627.032E-03
            3366             451         2.65610         2.04261        -1.63369        -1.06308
            3366             535         2.98659         1.76292    -797.897E-03        -1.62656
            3367             579         1.67195         2.34495    -931.834E-03        -1.10843
            3367             616         1.75751         2.10952    -541.508E-03    -806.940E-03
            3368             536         2.26424         2.30434        -1.68677        -1.46897
            3368             599         1.90163         2.37999    -467.391E-03        -1.21284
            3369             512         3.12498         1.37018         1.47648    -126.044E-03
            3369             624         2.27714         2.65154    -366.317E-03    -20.5090E-03
            3370             507         2.28824         1.96786        -1.25295    -932.577E-03
            3370             576         2.47701         2.12224        -1.22283    -868.061E-03
            3371             268     951.745E-03         1.07433    -951.745E-03    -221.960E-03
            3371             376         1.60382         1.58609        -1.01046    -678.532E-03
            3372             498         2.81707         1.70290        -1.91118    -983.621E-03
            3372             570         2.21904         2.18648    -530.649E-03    -627.768E-03
            3373             503         2.00599         1.84388    -769.554E-03        -1.06174
            3373             579         1.67195         2.34495    -931.834E-03        -1.10843
            3374             599         1.90163         2.37999    -467.391E-03        -1.21284
            3374             604         2.12133         2.06139    -898.388E-03    -503.980E-03
            3375             554         2.18378         2.11726     353.150E-03    -238.611E-03
            3375             625         1.93460         2.25749     139.134E-03    -859.849E-03
            3376             428         2.34167         2.69164        -1.06720        -1.73844
            3376             606         1.47360         2.96505     912.261E-03        -2.38329
            3377             619         1.84813         2.04693     424.518E-03    -762.986E-03
            3377             628         3.04523         1.96257     446.688E-03        -1.27686
            3378             560         1.34850         3.28253    -589.552E-03     41.6504E-03
            3378             610         2.16710         2.77264        -2.02997     205.551E-03
            3379             518         2.01770         1.75690         1.14899    -325.602E-03
            3379             591         1.31270         2.65834    -553.751E-03     107.054E-03
            3380             518         2.01770         1.75690         1.14899    -325.602E-03
            3380             560         1.34850         3.28253    -589.552E-03     41.6504E-03
            3381             517         3.40158         2.14064    -824.888E-03        -2.14064
            3381             588         3.25553         2.36340    -944.115E-03        -1.43140
            3382             517         3.40158         2.14064    -824.888E-03        -2.14064
            3382             602         3.10908         1.82494    -823.615E-03        -1.46933
            3383             593         2.70089         1.90832    -321.912E-03    -64.3599E-03
            3383             608         2.54599         1.76442    -449.441E-03        -1.04393
            3384             515         3.27235         1.57224         2.61463     491.549E-03
            3384             574         2.82946         1.41469         1.59030    -181.765E-03
            3385             566         2.40322         2.08793    -961.802E-03     352.102E-03
            3385             641         3.00946         1.56994    -614.882E-03    -571.110E-03
            3386             364         4.07722         3.29366        -3.52746        -2.35702
            3386             586         3.33873         2.16495        -2.75175        -1.32002
            3387             445         3.85371         1.98912        -3.10792        -1.53193
            3387             531         1.83324         3.19730        -1.32601        -2.54295
            3388             488         1.64983         3.48106     692.594E-03         1.72631
            3388             533         1.24266         3.36903    -549.165E-03         2.71538
            3389             441         1.85184         3.19084     313.797E-03         1.69264
            3389             587         2.70459         2.17916     175.710E-03     554.988E-03
            3390             508         3.19671         3.20695        -1.94289        -1.79161
            3390             597         3.27351         2.65280        -2.57370    -488.228E-03
            3391             508         3.19671         3.20695        -1.94289        -1.79161
            3391             588         3.25553         2.36340    -944.115E-03        -1.43140
            3392             570         2.21904         2.18648    -530.649E-03    -627.768E-03
            3392             633         1.71270         2.61421        -1.50532         2.23041
            3393             499         2.38007         1.85245        -1.12514    -597.512E-03
            3393             582         2.25099         2.41779        -1.26020    -693.671E-03
            3394             551         2.49250         3.10886        -1.09660        -2.07209
            3394             564         3.86735         2.13079        -2.94477    -894.274E-03
            3395             556         2.69486         2.73823        -2.11560     35.0735E-03
            3395             624         2.27714         2.65154    -366.317E-03    -20.5090E-03
            3396             516         1.98184         1.95745        -1.33617    -430.600E-03
            3396             581         2.14384         1.73343        -1.00368    -332.366E-03
            3397             516         1.98184         1.95745        -1.33617    -430.600E-03
            3397             538         2.55579         1.66464        -1.17885     216.823E-03
            3398             513         2.50869         2.02711         1.98215     518.549E-03
            3398             572     807.148E-03         3.37936    -315.032E-03         1.62857
            3399             513         2.50869         2.02711         1.98215     518.549E-03
            3399             583         2.08440         2.32786         1.05948     400.369E-03
            3400             512         3.12498         1.37018         1.47648    -126.044E-03
            3400             583         2.08440         2.32786         1.05948     400.369E-03
            3401             627         1.97165         2.00654    -987.457E-03    -349.899E-03
            3401             631         2.24628         1.72390    -785.459E-03    -559.123E-03
            3402             448         1.92602         2.63645     322.249E-03     826.527E-03
            3402             504         2.23378         2.54323    -830.647E-03         1.17781
            3403             448         1.92602         2.63645     322.249E-03     826.527E-03
            3403             584         2.67666         1.85884    -538.824E-03     769.331E-03
            3404             590         2.55033         2.53126    -669.831E-03     323.453E-03
            3404             610         2.16710         2.77264        -2.02997     205.551E-03
            3405             563         2.35723         2.87327        -1.57937        -2.24243
            3405             586         3.33873         2.16495        -2.75175        -1.32002
            3406             564         3.86735         2.13079        -2.94477    -894.274E-03
            3406             634         2.64887         2.60206        -1.04298        -1.15499
            3407             578         3.03533         1.44272        -2.80443    -715.679E-03
            3407             618         2.37067         1.61310        -1.63257    -569.285E-03
            3408             585         2.50660         1.90487        -1.21154        -1.11857
            3408             614         2.60561         1.95016    -850.523E-03    -558.469E-03
            3409             501         1.05140         3.78658    -64.3808E-03        -3.36971
            3409             568     930.682E-03         4.14890     385.529E-03        -3.83794
            3410             564         3.86735         2.13079        -2.94477    -894.274E-03
            3410             597         3.27351         2.65280        -2.57370    -488.228E-03
            3411             526         2.55163         1.88745    -167.515E-03    -940.943E-03
            3411             598         2.45939         1.85803    -251.648E-03    -168.344E-03
            3412             623         1.37047         2.85702    -156.567E-03        -1.93791
            3412             638         1.74569         2.10582     242.087E-03    -803.745E-03
            3413             491         2.26771         2.93263     735.483E-03         1.82295
            3413             542         2.21069         2.97310     246.918E-03     96.6032E-03
            3414             505         3.06208         2.43727     714.647E-03     89.8370E-03
            3414             611         2.97029         2.34087    -902.420E-03    -139.398E-03
            3415             529         1.48693         3.03819    -159.187E-03     791.655E-03
            3415             548         2.11975         2.86196        -1.11936         1.60561
            3416             529         1.48693         3.03819    -159.187E-03     791.655E-03
            3416             590         2.55033         2.53126    -669.831E-03     323.453E-03
            3417             490         3.47902         1.60217        -2.83852        -1.20221
            3417             532         2.86079         2.66295        -1.87459    -552.066E-03
            3418             527         2.04531         2.26074    -114.869E-03    -222.420E-03
            3418             538         2.55579         1.66464        -1.17885     216.823E-03
            3419             562         2.15766         2.38842     139.262E-03     891.220E-03
            3419             633         1.71270         2.61421        -1.50532         2.23041
            3420             541         2.93894         1.65948    -106.835E-03         1.09935
            3420             548         2.11975         2.86196        -1.11936         1.60561
            3421             548         2.11975         2.86196        -1.11936         1.60561
            3421             593         2.70089         1.90832    -321.912E-03    -64.3599E-03
            3422             603         1.99689         3.23509        -1.10342        -2.62230
            3422             609         3.00654         2.01607        -2.29369    -24.7155E-03
            3423             590         2.55033         2.53126    -669.831E-03     323.453E-03
            3423             594         2.79397         2.12172    -646.980E-03    -866.202E-03
            3424             570         2.21904         2.18648    -530.649E-03    -627.768E-03
            3424             595         2.12737         2.70765     702.077E-03        -1.99047
            3425             589         2.57520         2.16180         1.84079    -733.800E-03
            3425             595         2.12737         2.70765     702.077E-03        -1.99047
            3426             611         2.97029         2.34087    -902.420E-03    -139.398E-03
            3426             634         2.64887         2.60206        -1.04298        -1.15499
            3427             611         2.97029         2.34087    -902.420E-03    -139.398E-03
            3427             622         2.07612         2.83109     527.933E-03        -1.24529
            3428             464         1.14278         3.52603    -140.986E-03         3.37510
            3428             522         1.24166         3.75347    -111.630E-03         3.28746
            3429             567         2.56556         2.22023    -791.225E-03    -21.1284E-03
            3429             596         2.49350         1.68649         1.72383    -654.985E-03
            3430             423         2.52053         2.18477         1.38771         1.78096
            3430             596         2.49350         1.68649         1.72383    -654.985E-03
            3431             542         2.21069         2.97310     246.918E-03     96.6032E-03
            3431             577         2.29113         2.58236    -168.918E-03     667.029E-03
            3432             526         2.55163         1.88745    -167.515E-03    -940.943E-03
            3432             561         1.81055         2.20807    -664.456E-03        -1.03810
            3433             592         2.07558         1.97095    -740.027E-03    -458.194E-03
            3433             625         1.93460         2.25749     139.134E-03    -859.849E-03
            3434             587         2.70459         2.17916     175.710E-03     554.988E-03
            3434             619         1.84813         2.04693     424.518E-03    -762.986E-03
            3435             596         2.49350         1.68649         1.72383    -654.985E-03
            3435             600         2.03805         1.71882         1.30139     455.412E-03
            3436             524         1.75623         2.84981     908.535E-03         2.30482
            3436             600         2.03805         1.71882         1.30139     455.412E-03
            3437             464         1.14278         3.52603    -140.986E-03         3.37510
            3437             524         1.75623         2.84981     908.535E-03         2.30482
            3438             625         1.93460         2.25749     139.134E-03    -859.849E-03
            3438             626         2.12919         1.61316    -657.495E-03    -713.553E-03
            3439             625         1.93460         2.25749     139.134E-03    -859.849E-03
            3439             642         2.03475         1.55280    -904.154E-03    -353.554E-03
            3440             617         2.30200         2.15389    -779.864E-03    -631.746E-03
            3440             630         2.42676         2.01147    -791.197E-03     365.356E-03
            3441             633         1.71270         2.61421        -1.50532         2.23041
            3441             644         1.95083         1.87076    -733.151E-03     395.453E-03
            3442             599         1.90163         2.37999    -467.391E-03        -1.21284
            3442             604         2.12133         2.06139    -898.388E-03    -503.980E-03
            3443             572     807.148E-03         3.37936    -315.032E-03         1.62857
            3443             583         2.08440         2.32786         1.05948     400.369E-03
            3444             532         2.86079         2.66295        -1.87459    -552.066E-03
            3444             605         2.81576         2.56957    -715.348E-03    -587.064E-03
            3445             532         2.86079         2.66295        -1.87459    -552.066E-03
            3445             542         2.21069         2.97310     246.918E-03     96.6032E-03
            3446             560         1.34850         3.28253    -589.552E-03     41.6504E-03
            3446             607         2.16199         3.32869        -1.15700    -896.204E-03
            3447             591         1.31270         2.65834    -553.751E-03     107.054E-03
            3447             607         2.16199         3.32869        -1.15700    -896.204E-03
            3448             502         3.19245         3.48437        -1.98640        -1.74517
            3448             607         2.16199         3.32869        -1.15700    -896.204E-03
            3449             580         2.63716         2.05250     714.335E-03    -295.885E-03
            3449             622         2.07612         2.83109     527.933E-03        -1.24529
            3450             596         2.49350         1.68649         1.72383    -654.985E-03
            3450             635         1.86461         1.74302     704.893E-03    -359.764E-03
            3451             575         2.73178         2.03152         2.46073        -1.87649
            3451             613         2.02512         2.53428     21.8800E-03        -1.11977
            3452             557         2.52021         1.94576    -768.159E-03     364.410E-03
            3452             609         3.00654         2.01607        -2.29369    -24.7155E-03
            3453             560         1.34850         3.28253    -589.552E-03     41.6504E-03
            3453             590         2.55033         2.53126    -669.831E-03     323.453E-03
            3454             607         2.16199         3.32869        -1.15700    -896.204E-03
            3454             610         2.16710         2.77264        -2.02997     205.551E-03
            3455             544         2.65915         2.32814        -1.55583        -1.22483
            3455             610         2.16710         2.77264        -2.02997     205.551E-03
            3456             586         3.33873         2.16495        -2.75175        -1.32002
            3456             623         1.37047         2.85702    -156.567E-03        -1.93791
            3457             523         2.16980         2.89036        -1.35235        -2.02070
            3457             563         2.35723         2.87327        -1.57937        -2.24243
            3458             574         2.82946         1.41469         1.59030    -181.765E-03
            3458             636         2.26480         1.94685    -118.594E-03     80.3459E-03
            3459             545         2.05372         1.68709     153.407E-03     842.322E-03
            3459             612         2.03896         2.55984    -259.003E-03     262.763E-03
            3460             545         2.05372         1.68709     153.407E-03     842.322E-03
            3460             572     807.148E-03         3.37936    -315.032E-03         1.62857
            3461             535         2.98659         1.76292    -797.897E-03        -1.62656
            3461             602         3.10908         1.82494    -823.615E-03        -1.46933
            3462             617         2.30200         2.15389    -779.864E-03    -631.746E-03
            3462             637         2.48018         1.69615    -441.997E-03    -88.3324E-03
            3463             617         2.30200         2.15389    -779.864E-03    -631.746E-03
            3463             630         2.42676         2.01147    -791.197E-03     365.356E-03
            3464             499         2.38007         1.85245        -1.12514    -597.512E-03
            3464             617         2.30200         2.15389    -779.864E-03    -631.746E-03
            3465             543         1.93067         2.00381    -731.747E-03    -672.010E-03
            3465             616         1.75751         2.10952    -541.508E-03    -806.940E-03
            3466             504         2.23378         2.54323    -830.647E-03         1.17781
            3466             630         2.42676         2.01147    -791.197E-03     365.356E-03
            3467             504         2.23378         2.54323    -830.647E-03         1.17781
            3467             584         2.67666         1.85884    -538.824E-03     769.331E-03
            3468             596         2.49350         1.68649         1.72383    -654.985E-03
            3468             638         1.74569         2.10582     242.087E-03    -803.745E-03
            3469             505         3.06208         2.43727     714.647E-03     89.8370E-03
            3469             628         3.04523         1.96257     446.688E-03        -1.27686
            3470             593         2.70089         1.90832    -321.912E-03    -64.3599E-03
            3470             621         2.28425         2.10927    -297.817E-03    -974.090E-03
            3471             604         2.12133         2.06139    -898.388E-03    -503.980E-03
            3471             636         2.26480         1.94685    -118.594E-03     80.3459E-03
            3472             566         2.40322         2.08793    -961.802E-03     352.102E-03
            3472             619         1.84813         2.04693     424.518E-03    -762.986E-03
            3473             574         2.82946         1.41469         1.59030    -181.765E-03
            3473             620         2.25880         2.08938     987.254E-03        -1.03629
            3474             558         1.76980         1.86483    -350.985E-03        -1.02686
            3474             621         2.28425         2.10927    -297.817E-03    -974.090E-03
            3475             586         3.33873         2.16495        -2.75175        -1.32002
            3475             623         1.37047         2.85702    -156.567E-03        -1.93791
            3476             424         1.13668         3.84248    -112.253E-03         2.98568
            3476             562         2.15766         2.38842     139.262E-03     891.220E-03
            3477             600         2.03805         1.71882         1.30139     455.412E-03
            3477             635         1.86461         1.74302     704.893E-03    -359.764E-03
            3478             626         2.12919         1.61316    -657.495E-03    -713.553E-03
            3478             639         1.82182         1.92313     409.657E-03        -1.09925
            3479             601         1.83881         2.09591    -6.42217E-03         1.39060
            3479             644         1.95083         1.87076    -733.151E-03     395.453E-03
            3480             530         2.77679         1.52082         1.63169    -585.232E-03
            3480             613         2.02512         2.53428     21.8800E-03        -1.11977
            3481             601         1.83881         2.09591    -6.42217E-03         1.39060
            3481             633         1.71270         2.61421        -1.50532         2.23041
            3482             556         2.69486         2.73823        -2.11560     35.0735E-03
            3482             612         2.03896         2.55984    -259.003E-03     262.763E-03
            3483             424         1.13668         3.84248    -112.253E-03         2.98568
            3483             522         1.24166         3.75347    -111.630E-03         3.28746
            3484             522         1.24166         3.75347    -111.630E-03         3.28746
            3484             633         1.71270         2.61421        -1.50532         2.23041
            3485             514         2.10570         1.83308    -694.452E-03    -905.872E-03
            3485             558         1.76980         1.86483    -350.985E-03        -1.02686
            3486             514         2.10570         1.83308    -694.452E-03    -905.872E-03
            3486             626         2.12919         1.61316    -657.495E-03    -713.553E-03
            3487             561         1.81055         2.20807    -664.456E-03        -1.03810
            3487             627         1.97165         2.00654    -987.457E-03    -349.899E-03
            3488             588         3.25553         2.36340    -944.115E-03        -1.43140
            3488             628         3.04523         1.96257     446.688E-03        -1.27686
            3489             588         3.25553         2.36340    -944.115E-03        -1.43140
            3489             611         2.97029         2.34087    -902.420E-03    -139.398E-03
            3490             505         3.06208         2.43727     714.647E-03     89.8370E-03
            3490             611         2.97029         2.34087    -902.420E-03    -139.398E-03
            3491             566         2.40322         2.08793    -961.802E-03     352.102E-03
            3491             629         2.26521         2.57829        -1.35995    -80.6696E-03
            3492             596         2.49350         1.68649         1.72383    -654.985E-03
            3492             638         1.74569         2.10582     242.087E-03    -803.745E-03
            3493             534         3.28567         1.11126        -2.75812    -399.797E-03
            3493             570         2.21904         2.18648    -530.649E-03    -627.768E-03
            3494             618         2.37067         1.61310        -1.63257    -569.285E-03
            3494             640         2.67037         1.45827        -2.20092     550.987E-03
            3495             566         2.40322         2.08793    -961.802E-03     352.102E-03
            3495             630         2.42676         2.01147    -791.197E-03     365.356E-03
            3496             499         2.38007         1.85245        -1.12514    -597.512E-03
            3496             617         2.30200         2.15389    -779.864E-03    -631.746E-03
            3497             541         2.93894         1.65948    -106.835E-03         1.09935
            3497             632         2.41571         1.68481     266.815E-03    -464.089E-03
            3498             541         2.93894         1.65948    -106.835E-03         1.09935
            3498             593         2.70089         1.90832    -321.912E-03    -64.3599E-03
            3499             602         3.10908         1.82494    -823.615E-03        -1.46933
            3499             628         3.04523         1.96257     446.688E-03        -1.27686
            3500             530         2.77679         1.52082         1.63169    -585.232E-03
            3500             636         2.26480         1.94685    -118.594E-03     80.3459E-03
            3501             551         2.49250         3.10886        -1.09660        -2.07209
            3501             634         2.64887         2.60206        -1.04298        -1.15499
            3502             622         2.07612         2.83109     527.933E-03        -1.24529
            3502             634         2.64887         2.60206        -1.04298        -1.15499
            3503             638         1.74569         2.10582     242.087E-03    -803.745E-03
            3503             645         1.39599         2.29029     723.474E-03        -1.89202
            3504             602         3.10908         1.82494    -823.615E-03        -1.46933
            3504             641         3.00946         1.56994    -614.882E-03    -571.110E-03
            3505             613         2.02512         2.53428     21.8800E-03        -1.11977
            3505             636         2.26480         1.94685    -118.594E-03     80.3459E-03
            3506             584         2.67666         1.85884    -538.824E-03     769.331E-03
            3506             630         2.42676         2.01147    -791.197E-03     365.356E-03
            3507             584         2.67666         1.85884    -538.824E-03     769.331E-03
            3507             637         2.48018         1.69615    -441.997E-03    -88.3324E-03
            3508             631         2.24628         1.72390    -785.459E-03    -559.123E-03
            3508             637         2.48018         1.69615    -441.997E-03    -88.3324E-03
            3509             625         1.93460         2.25749     139.134E-03    -859.849E-03
            3509             639         1.82182         1.92313     409.657E-03        -1.09925
            3510             632         2.41571         1.68481     266.815E-03    -464.089E-03
            3510             639         1.82182         1.92313     409.657E-03        -1.09925
            3511             621         2.28425         2.10927    -297.817E-03    -974.090E-03
            3511             639         1.82182         1.92313     409.657E-03        -1.09925
            3512             558         1.76980         1.86483    -350.985E-03        -1.02686
            3512             621         2.28425         2.10927    -297.817E-03    -974.090E-03
            3513             623         1.37047         2.85702    -156.567E-03        -1.93791
            3513             638         1.74569         2.10582     242.087E-03    -803.745E-03
            3514             644         1.95083         1.87076    -733.151E-03     395.453E-03
            3514             645         1.39599         2.29029     723.474E-03        -1.89202
            3515             628         3.04523         1.96257     446.688E-03        -1.27686
            3515             641         3.00946         1.56994    -614.882E-03    -571.110E-03
            3516             626         2.12919         1.61316    -657.495E-03    -713.553E-03
            3516             642         2.03475         1.55280    -904.154E-03    -353.554E-03
            3517             615         1.97752         1.74351    -892.533E-03    -422.520E-03
            3517             642         2.03475         1.55280    -904.154E-03    -353.554E-03
            3518             618         2.37067         1.61310        -1.63257    -569.285E-03
            3518             643         1.59636         2.51948        -1.00134        -1.56700
            3519             586         3.33873         2.16495        -2.75175        -1.32002
            3519             643         1.59636         2.51948        -1.00134        -1.56700
            3520             640         2.67037         1.45827        -2.20092     550.987E-03
            3520             644         1.95083         1.87076    -733.151E-03     395.453E-03
            3521             618         2.37067         1.61310        -1.63257    -569.285E-03
            3521             645         1.39599         2.29029     723.474E-03        -1.89202
            3522             618         2.37067         1.61310        -1.63257    -569.285E-03
            3522             643         1.59636         2.51948        -1.00134        -1.56700


  Minimum                            21.7795E-03     77.3903E-03        -12.8904        -12.8912
      At Element                            1670             381            2655            2591
            Node                             180             123               8               7

  Maximum                                17.7262         17.7825         5.96131         4.48400
      At Element                            2591            2535            2525            3019
            Node                               7               7              41             284

           Total                     20.3672E+03     20.0480E+03    -1.35785E+03    -3.11864E+03


